# vtk DataFile Version 3.0
vtk output
ASCII
DATASET UNSTRUCTURED_GRID
FIELD FieldData 2
TIME 1 1 double
0.00400086
CYCLE 1 1 int
0
POINTS 102 float
0.61083 -5.0001 8.03992
-0.0226194 4.99737 -0.0663422
-0.549351 4.99773 8.07692
9.99737 4.99514 -0.0768078
0.462818 -5.00204 19.0555
-0.02 5 30
9.99719 4.9952 20.9254
-0.284423 4.99115 18.8992
-9.98672 -4.98966 20.7726
0.02 -5 30
-10 5 30
-10 -5 30
9.99446 4.99908 9.58988
9.99514 -5.00486 -0.0829983
9.99481 -5.00543 14.9298
-9.99818 4.99305 14.9442
-9.98234 -4.98819 9.1683
10 -5 30
-10.0026 4.99959 -0.0559184
-10.0048 -5.00041 -0.0621089
0.0151471 -5.00264 -0.0725744
10 5 30
0.313755 -5.00138 3.98249
-4.69339 -5.00171 3.98822
-4.99485 -5.00152 -0.0673416
-9.99519 -4.99531 25.3852
-4.98578 -4.99922 25.3861
-4.99 -5 30
5.01 -5 30
0.242398 -5.00058 24.5305
5.23113 -4.99763 24.529
10.0021 -4.9952 22.4679
5.23098 -5.00188 16.9958
-4.76371 -4.99946 19.9128
9.99712 -5.00511 7.42759
5.3019 -5.00343 11.4857
5.30189 -5.00532 3.97782
5.00514 -5.00375 -0.0777863
0.531137 -5.00045 13.5486
-9.99235 -4.99984 4.55302
-4.68661 -5.00068 8.60683
-9.99485 -4.99454 14.968
-4.76982 -4.99874 14.1134
9.99707 4.98831 4.7535
9.99648 -0.0091105 4.74975
9.99626 -0.00486274 -0.079903
9.99778 -0.00306055 17.924
9.99824 -0.000301151 25.461
9.99442 -0.0054284 12.2537
9.99859 4.9916 15.2524
10 0 30
9.99738 4.9953 25.4636
-0.283142 4.99341 4.00475
4.72422 4.98817 3.99958
4.98738 4.99625 -0.071575
4.99095 4.99526 25.4609
4.99 5 30
-5.01 5 30
-0.148098 4.99305 24.4486
-5.13341 4.99481 24.4505
-9.98299 4.99907 22.4681
-5.13691 4.99109 16.9184
4.8577 4.99217 19.9057
-9.98234 4.99956 7.43757
-5.26699 4.99298 11.5106
-5.27031 4.9949 4.00581
-5.01262 4.99848 -0.0611303
-0.414356 4.99269 13.486
4.72404 4.98881 8.82472
4.85424 4.99115 14.2382
-9.99302 -0.00163789 4.55308
-10.0037 -0.00040857 -0.0590136
-9.99022 -0.000207038 17.8572
-9.99293 0.00206734 25.3849
-9.99184 0.00463229 12.0511
-10 0 30
-5.01373 -0.00151989 -0.0642255
-0.00373615 -0.00263565 -0.0694583
5.00626 -0.00375142 -0.0746911
0 0 30
-5.01 0 30
5.01 0 30
5.3021 -0.0090017 3.98009
0.293533 -0.0051566 3.98336
0.0273868 -0.00330103 8.05524
0.0893507 -0.00483693 18.9781
0.220989 -0.00386319 24.5295
5.22848 -0.00315207 19.9853
-5.00378 -0.00224871 25.3871
-5.13428 -0.00362718 19.835
5.01123 -0.00168087 25.4599
5.30491 -0.00688744 8.80803
0.163078 -0.00460128 13.4686
-4.76538 -0.00433128 16.9974
-5.27318 -0.00376271 4.00497
-4.69018 -0.00255767 11.4905
5.22676 -0.00612725 14.3155
-5.26925 -0.00346774 8.61978
-0.00373615 -0.00263565 -0.0694583
0 0 0
0 0 30
0 0 30

CELLS 47 211
2 98 19
2 98 13
2 98 3
2 98 18
2 98 20
2 98 1
2 100 11
2 100 17
2 100 21
2 100 10
2 100 9
2 100 5
4 0 1 2 3
4 4 5 6 7
4 4 5 7 8
4 4 5 6 9
4 5 8 10 11
4 0 12 13 14
4 0 2 7 12
4 4 8 15 16
4 7 8 10 15
4 4 6 14 17
4 1 2 18 19
4 0 1 2 19
4 4 5 8 9
4 5 8 9 11
4 0 4 15 16
4 5 7 8 10
4 0 4 7 15
4 0 3 12 13
4 0 4 7 12
4 4 7 8 15
4 0 2 15 16
4 4 6 7 12
4 4 6 9 17
4 0 3 13 20
4 0 1 19 20
4 2 16 18 19
4 4 6 12 14
4 0 2 7 15
4 0 2 16 19
4 6 9 17 21
4 0 4 12 14
4 0 2 3 12
4 5 6 9 21
4 2 15 16 18
4 0 1 3 20

CELL_TYPES 47
3
3
3
3
3
3
3
3
3
3
3
3
10
10
10
10
10
10
10
10
10
10
10
10
10
10
10
10
10
10
10
10
10
10
10
10
10
10
10
10
10
10
10
10
10
10
10

POINT_DATA 102
SCALARS NODE_ID int 1
LOOKUP_TABLE default
20
18
22
6
19
16
15
21
10
11
7
2
14
4
12
17
9
3
8
1
13
5
23
24
25
26
27
28
29
30
31
32
33
34
35
36
37
38
39
40
41
42
43
44
45
46
47
48
49
50
51
52
53
54
55
56
57
58
59
60
61
62
63
64
65
66
67
68
69
70
71
72
73
74
75
76
77
78
79
80
81
82
83
84
85
86
87
88
89
90
91
92
93
94
95
96
97
98
99
100
101
102

SCALARS Time_Step float 1
LOOKUP_TABLE default
1.00039e-06
1.47838e+07
1.00048e-06
1.51395e+07
1.00104e-06
2.09559e+07
1.00096e-06
1.00093e-06
1.00063e-06
1.77935e+07
1.35445e+07
9.84791e+06
1.00071e-06
1.28134e+07
1.00113e-06
1.00058e-06
1.00072e-06
1.34359e+07
1.27647e+07
1.5174e+07
1.13089e+07
9.76738e+06
1.00029e-06
1.00064e-06
1.00099e-06
1.0008e-06
1.00064e-06
1.00147e-06
1.00145e-06
1.00168e-06
1.00194e-06
1.0019e-06
1.0013e-06
1.00067e-06
1.00092e-06
1.00102e-06
1.00079e-06
1.00159e-06
1.0017e-06
1.00105e-06
1.00086e-06
1.0014e-06
1.00155e-06
1.00034e-06
1.0009e-06
1.00081e-06
1.00126e-06
1.00146e-06
1.00103e-06
1.00144e-06
1.00137e-06
1.00075e-06
1.0006e-06
1.00107e-06
1.00054e-06
1.00075e-06
1.0007e-06
1.00084e-06
1.00178e-06
1.00211e-06
1.00251e-06
1.00074e-06
1.00172e-06
1.00152e-06
1.00088e-06
1.00094e-06
1.00023e-06
1.0012e-06
1.00059e-06
1.00109e-06
1.00148e-06
1.0008e-06
1.00086e-06
1.00128e-06
1.00071e-06
1.00079e-06
1.0005e-06
1.00044e-06
1.00061e-06
1.00057e-06
1.0008e-06
1.00075e-06
1.00045e-06
1.00038e-06
1.00052e-06
1.00077e-06
1.00154e-06
1.00154e-06
1.00087e-06
1.00082e-06
1.00088e-06
1.00065e-06
1.00122e-06
1.00064e-06
1.00055e-06
1.00094e-06
1.00143e-06
1.00105e-06
1.00028e-06
1e+06
1.00071e-06
1e+06

SCALARS Mass_Change float 1
LOOKUP_TABLE default
2.2422
0
2.30027
0
2.01901
0
1.68804
2.04981
2.05601
0
0
0
1.65365
0
1.21511
2.53445
2.3947
0
0
0
0
0
2.31431
2.26565
2.61505
1.57571
1.35447
1.57575
2.23139
2.32331
1.67151
0.876327
1.3781
2.52078
0.804042
1.19955
1.88587
2.06013
2.06006
2.45949
3.57507
0.751165
1.29388
2.27066
1.82733
2.77493
1.23034
1.66369
1.35351
1.36066
1.64855
1.64506
2.48718
1.83623
2.41868
1.95553
1.64466
2.22981
1.67708
1.6695
0.829841
2.71296
1.07589
0.784109
2.84691
1.8988
2.05224
1.20458
1.17278
1.61888
1.8458
2.83722
2.70845
1.64311
2.36837
1.5791
2.50446
2.44585
2.16814
1.88685
1.57571
1.64506
2.28567
2.57106
2.49283
2.50328
1.62474
1.70208
1.65405
2.86202
2.33662
1.75369
1.76339
2.91874
2.45514
3.03041
1.80187
3.07308
2.24947
0
1.76722
0

VECTORS Velocity float
482.16 -441.546 -3013.25
84.488 -64.5885 -2457.12
562.064 -514.835 -3813.42
83.5853 -903.711 -3202.71
715.272 -460.669 -3486.79
0 0 0
298.698 -1097.26 872.133
1146.07 -1105.97 -1267.92
1542.76 407.45 156.522
0 0 0
0 0 0
0 0 0
701.326 997.272 -2199.04
-754.898 -903.21 -3794.73
79.4135 211.336 1282.5
233.865 1115.76 -558.311
-768.503 -1845.85 -764.357
0 0 0
85.3872 771.185 -1714.51
-753.096 771.686 -2306.53
-753.999 -67.4372 -3052.12
0 0 0
181.318 -290.731 -3033.68
-271.888 -505.329 -2591.99
-753.547 352.124 -2679.32
577.315 551.423 -158.175
457.324 41.7401 -448.964
0 0 0
0 0 0
386.686 -779.545 -1217.06
54.407 -548.166 -877.357
-595.663 -955.449 -1238.43
48.2206 -78.6788 -2363.2
1073.61 217.131 -1875.83
1578.81 755.901 -2601.76
1297.54 121.187 -3016.76
621.478 224.913 -3089.93
-754.448 -485.324 -3423.42
301.761 -65.1954 -3336.29
35.874 -467.931 -1554.52
-265.852 -670.645 -2074.61
380.521 980.675 -363.796
84.9053 506.666 -1755.76
511.401 221.269 -2903.66
828.875 328.563 -3446.29
-335.656 -903.461 -3498.72
-390.847 134.705 -1535.96
243.234 -1204.32 -732.666
153.529 355.155 -1742.9
-315.563 283.304 -1134.7
0 0 0
588.134 -1104.88 58.1361
365.536 -391.385 -2967.43
474.25 -262.053 -2912.16
84.0367 -484.15 -2829.92
754.599 -723.658 -464.113
0 0 0
0 0 0
1451.15 -742.758 -457.926
1992.27 369.453 -391.003
2785.57 1333.31 -869.381
1497.95 193.481 -2049.03
506.955 -879.847 -1060.18
-369.447 -1220.27 -1975.11
-100.692 -254.273 -2667.51
294.175 -479.309 -1974.01
84.9376 353.298 -2085.82
91.489 -183.198 -2659.36
234.422 -219.676 -2644.15
-372.295 -686.419 -2265.63
152.111 -648.065 -2121.85
-333.854 771.435 -2010.52
1001.71 1063.2 -86.6188
1264.96 558.911 -647.4
496.229 -266.559 -1179.51
0 0 0
-334.304 353.549 -2381.82
-334.755 -66.0129 -2754.62
-335.207 -485.574 -3127.41
0 0 0
0 0 0
0 0 0
492.378 -85.1448 -3013.71
270.546 -497.39 -2759.95
596.522 -524.553 -2874.11
745.914 -639.24 -1504.67
660.406 -826.52 -420.745
83.8334 -637.048 -1312.38
950.054 2.53862 -716.98
1292.79 522.09 -1175.62
357.149 -773.465 -518.015
875.958 3.72668 -2650.36
177.271 -97.282 -2567.43
930.409 635.265 -1533.21
132.232 -630.164 -2273.95
51.649 -265.764 -2220.66
121.227 -66.9144 -2491.77
22.7502 -657.275 -2263.92
-334.755 -66.0129 -2754.62
0 0 0
0 0 0
0 0 0

VECTORS Displacement float
0.00460471 -0.000102774 -0.0516563
-0.00261937 -0.00263228 -0.0663422
0.00498234 -0.00226842 -0.0470208
-0.00262508 -0.00486382 -0.0768078
0.0090689 -0.00203921 -0.0252327
0 0 0
-0.00280607 -0.00480305 -0.0145956
0.00336481 -0.00884612 -0.0236214
0.0132827 0.010341 -0.0174392
0 0 0
0 0 0
0 0 0
-0.00553793 -0.000918802 -0.0401231
-0.00485863 -0.00486166 -0.0829983
-0.00518821 -0.00542733 -0.040221
0.00181824 -0.00694984 -0.0258372
0.0176565 0.011807 -0.0416957
0 0 0
-0.00261368 -0.000409653 -0.0559184
-0.00484723 -0.000407487 -0.0621089
-0.00485294 -0.00263903 -0.0725744
0 0 0
0.000642302 -0.00137745 -0.0632999
0.00349901 -0.00171387 -0.0575646
-0.00485008 -0.00152326 -0.0673416
0.00480948 0.0046897 -0.00979759
0.00421699 0.000784766 -0.0088678
0 0 0
0 0 0
0.00552377 -0.00058113 -0.00993719
0.00425932 0.00237001 -0.0114245
0.00207876 0.00480225 -0.017065
0.00410475 -0.00188213 -0.0296295
0.00941759 0.000543764 -0.0225815
-0.0028838 -0.00511102 -0.0574113
-0.00120917 -0.00342544 -0.0450671
-0.0012194 -0.00532091 -0.0679638
-0.00485579 -0.00375034 -0.0777863
0.00115018 -0.000449661 -0.0375456
0.00764825 0.000161897 -0.0519759
0.0102761 -0.000683287 -0.0439536
0.00515059 0.00546471 -0.0319579
0.0033029 0.0012615 -0.0320161
-0.00292573 -0.0116894 -0.0615033
-0.00352273 -0.0091105 -0.0652507
-0.00374186 -0.00486274 -0.079903
-0.00222482 -0.00306055 -0.0310129
-0.00175707 -0.000301151 -0.00896948
-0.00558396 -0.0054284 -0.0463181
-0.00140768 -0.00840092 -0.0325512
0 0 0
-0.00262215 -0.00469614 -0.00638629
0.0040244 -0.00658922 -0.057225
0.00138766 -0.0118269 -0.0623883
-0.00262222 -0.00374805 -0.071575
0.000953945 -0.00474405 -0.0091015
0 0 0
0 0 0
0.00579591 -0.00695117 -0.0127913
0.0104866 -0.0051899 -0.0108858
0.0170111 -0.00093225 -0.0169037
0.00697922 -0.0089088 -0.0279954
0.00159537 -0.00783229 -0.025679
0.0176559 -0.000436917 -0.0474316
0.0101736 -0.00702209 -0.0363492
0.00685412 -0.00510067 -0.0561637
-0.00261652 -0.00152097 -0.0611303
0.00670469 -0.00730643 -0.0373784
0.00121091 -0.0111933 -0.0522553
-0.00186157 -0.00885367 -0.0382726
0.00698245 -0.00163789 -0.0519232
-0.00373045 -0.00040857 -0.0590136
0.0097847 -0.000207038 -0.0227952
0.00706862 0.00206734 -0.0101349
0.00816293 0.00463229 -0.0389053
0 0 0
-0.0037333 -0.00151989 -0.0642255
-0.00373615 -0.00263565 -0.0694583
-0.00373901 -0.00375142 -0.0746911
0 0 0
0 0 0
0 0 0
-0.00100778 -0.0090017 -0.0656976
0.000420979 -0.0051566 -0.0624274
0.00144108 -0.00330103 -0.0525233
0.00637012 -0.00483693 -0.0236802
0.00411442 -0.00386319 -0.0108674
0.00160688 -0.00315207 -0.0250522
0.00622259 -0.00224871 -0.00792684
0.00961526 -0.00362718 -0.0214254
0.00123123 -0.00168087 -0.0100651
0.00179865 -0.00688744 -0.0527569
0.00385996 -0.00460128 -0.0386579
0.00774826 -0.00433128 -0.0279709
0.00398743 -0.00376271 -0.0569978
0.00670681 -0.00255767 -0.0402815
-0.000116434 -0.00612725 -0.039843
0.00791654 -0.00346774 -0.0471955
-0.00373615 -0.00263565 -0.0694583
0 0 0
0 0 0
0 0 0

VECTORS Acceleration float
-1.4817e+08 9.28559e+07 7.04717e+07
7.98846e+07 5.63657e+07 2.16251e+07
-9.219e+07 -1.05929e+07 -5.39845e+07
8.00279e+07 8.99648e+07 2.55398e+08
-1.95448e+08 1.33873e+08 9.71088e+07
0 0 0
-1.1508e+08 -8.02751e+06 -1.00445e+08
-3.95113e+07 1.34101e+08 -3.43611e+07
-1.58496e+08 -1.01469e+08 -7.934e+07
0 0 0
0 0 0
0 0 0
-3.24422e+07 -1.96048e+07 -5.89796e+07
1.13682e+08 9.00278e+07 3.02848e+08
-2.38228e+07 1.88575e+08 1.97732e+08
9.35425e+07 3.15299e+07 -1.95074e+08
-2.79476e+08 -2.56681e+08 -5.52175e+07
0 0 0
7.97418e+07 2.29008e+07 -2.11215e+08
1.13396e+08 2.29638e+07 -1.63765e+08
1.13539e+08 5.65629e+07 7.00084e+07
0 0 0
-6.92639e+06 -898845 -1.18171e+07
-1.6784e+07 3.97061e+06 -2.97497e+07
1.13436e+08 2.01656e+08 9.7812e+08
1.20305e+08 5.57662e+07 5.3617e+07
1.05852e+07 7.68446e+07 2.97947e+07
1.28504e+08 2.11734e+08 -1.06607e+09
4.1585e+07 1.22672e+08 -3.82809e+08
-4.83955e+07 1.59744e+07 -6.93488e+07
-7.11644e+07 -7.11694e+07 -5.28901e+07
-1.69962e+08 -1.43485e+08 -8.90148e+07
-8.49084e+07 -8.90242e+07 -1.161e+08
2.37842e+07 5.46049e+07 1.58817e+07
-1.29968e+08 4.39808e+07 -1.04035e+08
4.57095e+07 -3.24161e+07 -5.33059e+07
-2.64625e+07 1.02606e+08 3.29247e+07
-7.37288e+07 2.14231e+08 1.28478e+09
1.33243e+08 -5.33461e+07 -3.27082e+07
2.13525e+07 1.3667e+08 3.22792e+06
1.85999e+07 1.60083e+08 -1.11656e+08
2.52896e+08 5.6918e+07 5.02575e+07
2.60029e+08 6.05919e+07 -7.60568e+07
-6.78226e+07 1.82798e+08 1.00977e+08
-8.49729e+07 1.31465e+08 1.08196e+08
-1.48667e+08 7.86015e+06 5.13388e+08
-2.7639e+07 -5.20453e+07 6.00214e+07
1.38244e+07 -1.38332e+07 5.80325e+07
3.39061e+07 5.73183e+07 1.3357e+08
-9.49507e+07 1.04466e+08 1.48124e+08
-2.49691e+08 -1.13192e+08 -1.1643e+09
-9.34166e+06 7.53417e+07 -2.23193e+07
-7.24058e+07 5.49441e+07 -1.08959e+07
-2.97931e+07 1.3258e+08 -7.28107e+06
1.18668e+07 -1.63588e+08 5.24964e+08
-1.5328e+07 5.26499e+06 3.03723e+06
-2.54563e+07 -4.00966e+08 -1.31741e+09
1.58268e+08 -2.41418e+08 -3.81538e+08
-1.21237e+08 3.58138e+07 6.10285e+07
-1.67552e+08 -4.53237e+07 -4.37705e+07
-2.55019e+08 -1.04268e+08 6.6814e+07
-1.10612e+08 3.95579e+07 5.50544e+07
-6.17113e+07 4.26852e+07 1.47393e+08
-4.4707e+08 -1.8147e+08 1.58083e+08
-1.90451e+08 2.16976e+07 -1.92062e+06
-1.39533e+08 2.79851e+07 1.17073e+08
3.69276e+08 -2.95811e+08 6.69232e+08
-5.97626e+07 2.19492e+06 4.86679e+07
-1.6662e+07 1.82707e+08 1.27213e+08
4.75226e+07 6.50537e+07 9.21802e+07
5.93582e+07 9.3305e+07 6.45616e+07
7.5492e+07 -3.02324e+07 4.22209e+08
-2.29835e+07 2.93605e+07 5.17856e+06
8.33982e+07 1.78502e+07 4.01079e+07
6.12445e+07 -7.81578e+07 1.17417e+08
6.16802e+08 -2.89138e+07 -1.37016e+09
1.08553e+08 -1.76488e+07 3.6922e+08
6.27704e+07 -1.18287e+08 8.25428e+08
-2.57714e+07 -1.59604e+08 1.05102e+09
4.3478e+07 -5.04728e+07 -4.07258e+08
1.90331e+08 -9.51462e+07 -1.02783e+09
-2.30898e+07 -1.08732e+08 -1.16706e+09
3.51076e+07 9.51809e+07 -4.01261e+07
5.4486e+07 -5.40634e+06 3.35803e+07
9.59809e+07 4.0466e+07 4.95517e+07
3.09485e+06 -3.65322e+07 -4.64069e+07
2.87394e+06 2.23552e+07 -4.71417e+07
6.42765e+07 1.73644e+07 8.31691e+07
1.895e+06 8.97425e+07 252981
-451467 4.75285e+07 3.31406e+06
-4.83027e+06 1.18586e+07 9.01722e+07
-2.69589e+07 9.83971e+07 1.00469e+08
2.29219e+07 -3.94277e+07 1.17277e+07
-1.28763e+07 -1.18619e+07 -5.36133e+06
-6.14153e+07 1.43699e+07 6.36477e+07
-4.61369e+07 -4.9163e+07 2.56311e+07
5.34674e+07 3.51803e+07 7.93974e+07
8.77781e+07 1.70144e+08 6.93645e+06
9.67119e+07 5.64643e+07 4.58168e+07
0 0 0
0 0 0
0 0 0

VECTORS Contact_Forces float
0 0 0
0 0 0
0 0 0
0 0 0
0 0 0
0 0 0
0 0 0
0 0 0
0 0 0
0 0 0
0 0 0
0 0 0
0 0 0
0 0 0
0 0 0
0 0 0
0 0 0
0 0 0
0 0 0
0 0 0
0 0 0
0 0 0
0 0 0
0 0 0
0 0 0
0 0 0
0 0 0
0 0 0
0 0 0
0 0 0
0 0 0
0 0 0
0 0 0
0 0 0
0 0 0
0 0 0
0 0 0
0 0 0
0 0 0
0 0 0
0 0 0
0 0 0
0 0 0
0 0 0
0 0 0
0 0 0
0 0 0
0 0 0
0 0 0
0 0 0
0 0 0
0 0 0
0 0 0
0 0 0
0 0 0
0 0 0
0 0 0
0 0 0
0 0 0
0 0 0
0 0 0
0 0 0
0 0 0
0 0 0
0 0 0
0 0 0
0 0 0
0 0 0
0 0 0
0 0 0
0 0 0
0 0 0
0 0 0
0 0 0
0 0 0
0 0 0
0 0 0
0 0 0
0 0 0
0 0 0
0 0 0
0 0 0
0 0 0
0 0 0
0 0 0
0 0 0
0 0 0
0 0 0
0 0 0
0 0 0
0 0 0
0 0 0
0 0 0
0 0 0
0 0 0
0 0 0
0 0 0
0 0 0
0 0 0
0 0 0
0 0 0
0 0 0

VECTORS Contact_Pressure_/_Normal float
0 0 0
0 0 0
0 0 0
0 0 0
0 0 0
0 0 0
0 0 0
0 0 0
0 0 0
0 0 0
0 0 0
0 0 0
0 0 0
0 0 0
0 0 0
0 0 0
0 0 0
0 0 0
0 0 0
0 0 0
0 0 0
0 0 0
0 0 0
0 0 0
0 0 0
0 0 0
0 0 0
0 0 0
0 0 0
0 0 0
0 0 0
0 0 0
0 0 0
0 0 0
0 0 0
0 0 0
0 0 0
0 0 0
0 0 0
0 0 0
0 0 0
0 0 0
0 0 0
0 0 0
0 0 0
0 0 0
0 0 0
0 0 0
0 0 0
0 0 0
0 0 0
0 0 0
0 0 0
0 0 0
0 0 0
0 0 0
0 0 0
0 0 0
0 0 0
0 0 0
0 0 0
0 0 0
0 0 0
0 0 0
0 0 0
0 0 0
0 0 0
0 0 0
0 0 0
0 0 0
0 0 0
0 0 0
0 0 0
0 0 0
0 0 0
0 0 0
0 0 0
0 0 0
0 0 0
0 0 0
0 0 0
0 0 0
0 0 0
0 0 0
0 0 0
0 0 0
0 0 0
0 0 0
0 0 0
0 0 0
0 0 0
0 0 0
0 0 0
0 0 0
0 0 0
0 0 0
0 0 0
0 0 0
0 0 0
0 0 0
0 0 0
0 0 0

VECTORS Contact_Pressure_/_Tangent float
0 0 0
0 0 0
0 0 0
0 0 0
0 0 0
0 0 0
0 0 0
0 0 0
0 0 0
0 0 0
0 0 0
0 0 0
0 0 0
0 0 0
0 0 0
0 0 0
0 0 0
0 0 0
0 0 0
0 0 0
0 0 0
0 0 0
0 0 0
0 0 0
0 0 0
0 0 0
0 0 0
0 0 0
0 0 0
0 0 0
0 0 0
0 0 0
0 0 0
0 0 0
0 0 0
0 0 0
0 0 0
0 0 0
0 0 0
0 0 0
0 0 0
0 0 0
0 0 0
0 0 0
0 0 0
0 0 0
0 0 0
0 0 0
0 0 0
0 0 0
0 0 0
0 0 0
0 0 0
0 0 0
0 0 0
0 0 0
0 0 0
0 0 0
0 0 0
0 0 0
0 0 0
0 0 0
0 0 0
0 0 0
0 0 0
0 0 0
0 0 0
0 0 0
0 0 0
0 0 0
0 0 0
0 0 0
0 0 0
0 0 0
0 0 0
0 0 0
0 0 0
0 0 0
0 0 0
0 0 0
0 0 0
0 0 0
0 0 0
0 0 0
0 0 0
0 0 0
0 0 0
0 0 0
0 0 0
0 0 0
0 0 0
0 0 0
0 0 0
0 0 0
0 0 0
0 0 0
0 0 0
0 0 0
0 0 0
0 0 0
0 0 0
0 0 0

VECTORS Tied_Contact_Forces float
0 0 0
0 0 0
0 0 0
0 0 0
0 0 0
0 0 0
0 0 0
0 0 0
0 0 0
0 0 0
0 0 0
0 0 0
0 0 0
0 0 0
0 0 0
0 0 0
0 0 0
0 0 0
0 0 0
0 0 0
0 0 0
0 0 0
0 0 0
0 0 0
0 0 0
0 0 0
0 0 0
0 0 0
0 0 0
0 0 0
0 0 0
0 0 0
0 0 0
0 0 0
0 0 0
0 0 0
0 0 0
0 0 0
0 0 0
0 0 0
0 0 0
0 0 0
0 0 0
0 0 0
0 0 0
0 0 0
0 0 0
0 0 0
0 0 0
0 0 0
0 0 0
0 0 0
0 0 0
0 0 0
0 0 0
0 0 0
0 0 0
0 0 0
0 0 0
0 0 0
0 0 0
0 0 0
0 0 0
0 0 0
0 0 0
0 0 0
0 0 0
0 0 0
0 0 0
0 0 0
0 0 0
0 0 0
0 0 0
0 0 0
0 0 0
0 0 0
0 0 0
0 0 0
0 0 0
0 0 0
0 0 0
0 0 0
0 0 0
0 0 0
0 0 0
0 0 0
0 0 0
0 0 0
0 0 0
0 0 0
0 0 0
0 0 0
0 0 0
0 0 0
0 0 0
0 0 0
0 0 0
0 0 0
0 0 0
0 0 0
0 0 0
0 0 0

CELL_DATA 47
SCALARS ELEMENT_ID int 1
LOOKUP_TABLE default
0
0
0
0
0
0
0
0
0
0
0
0
1
2
3
4
5
6
7
8
9
10
11
12
13
14
15
16
17
18
19
20
21
22
23
24
25
26
27
28
29
30
31
32
33
34
35

SCALARS PART_ID int 1
LOOKUP_TABLE default
36
36
36
36
36
36
37
37
37
37
37
37
1
1
1
1
1
1
1
1
1
1
1
1
1
1
1
1
1
1
1
1
1
1
1
1
1
1
1
1
1
1
1
1
1
1
1

SCALARS EROSION_STATUS int 1
LOOKUP_TABLE default
1
1
1
1
1
1
1
1
1
1
1
1
1
1
1
1
1
1
1
1
1
1
1
1
1
1
1
1
1
1
1
1
1
1
1
1
1
1
1
1
1
1
1
1
1
1
1

SCALARS 1DELEM_Plastic_Strain float 1
LOOKUP_TABLE default
0
0
0
0
0
0
0
0
0
0
0
0
0
0
0
0
0
0
0
0
0
0
0
0
0
0
0
0
0
0
0
0
0
0
0
0
0
0
0
0
0
0
0
0
0
0
0

SCALARS 1DELEM_Specific_Energy float 1
LOOKUP_TABLE default
0
0
0
0
0
0
0
0
0
0
0
0
0
0
0
0
0
0
0
0
0
0
0
0
0
0
0
0
0
0
0
0
0
0
0
0
0
0
0
0
0
0
0
0
0
0
0

SCALARS 1DELEM_Von_Mises float 1
LOOKUP_TABLE default
0
0
0
0
0
0
0
0
0
0
0
0
0
0
0
0
0
0
0
0
0
0
0
0
0
0
0
0
0
0
0
0
0
0
0
0
0
0
0
0
0
0
0
0
0
0
0

SCALARS 3DELEM_Plastic_Strain float 1
LOOKUP_TABLE default
0
0
0
0
0
0
0
0
0
0
0
0
0
0
0
0
0
0
0
0
0
0
0
0
0
0
0
0
0
0
0
0
0
0
0
0
0
0
0
0
0
0
0
0
0
0
0

SCALARS 3DELEM_Specific_Energy float 1
LOOKUP_TABLE default
0
0
0
0
0
0
0
0
0
0
0
0
1.10749e+08
1.26653e+08
1.08891e+08
1.0636e+08
1.05801e+08
1.53317e+08
1.32571e+08
1.23021e+08
9.51728e+07
1.33426e+08
6.97784e+07
9.07256e+07
1.07579e+08
9.23886e+07
1.35327e+08
1.12085e+08
1.32176e+08
1.60409e+08
1.2494e+08
1.33391e+08
1.46798e+08
1.20963e+08
1.19987e+08
1.17525e+08
9.56841e+07
1.02173e+08
1.32559e+08
1.15436e+08
1.4271e+08
9.92253e+07
1.35194e+08
1.33986e+08
9.87576e+07
1.28539e+08
8.75721e+07

SCALARS 3DELEM_Von_Mises float 1
LOOKUP_TABLE default
0
0
0
0
0
0
0
0
0
0
0
0
457.262
578.636
507.527
497.522
392.424
579.504
558.431
473.003
433.977
566.753
348.578
423.98
463.241
364.863
486.657
482.21
529.016
571.668
546.299
494.425
554.799
506.967
503.619
444.786
413.671
379.872
569.501
471.991
540.082
411.8
533.938
500.143
417.226
483.564
390.69

TENSORS 3DELEM_Stress float
0 0 0 
0 0 0 
0 0 0 
0 0 0 
0 0 0 
0 0 0 
0 0 0 
0 0 0 
0 0 0 
0 0 0 
0 0 0 
0 0 0 
0 0 0 
0 0 0 
0 0 0 
0 0 0 
0 0 0 
0 0 0 
0 0 0 
0 0 0 
0 0 0 
0 0 0 
0 0 0 
0 0 0 
0 0 0 
0 0 0 
0 0 0 
0 0 0 
0 0 0 
0 0 0 
0 0 0 
0 0 0 
0 0 0 
0 0 0 
0 0 0 
0 0 0 
75.3899 -29.2508 -6.66704
-29.2508 55.3542 -20.2117
-6.66704 -20.2117 517.989
-38.9126 33.2635 10.2642
33.2635 -16.1716 -43.9922
10.2642 -43.9922 542.538
11.4179 -8.09356 14.0372
-8.09356 -12.6381 -49.5369
14.0372 -49.5369 498.389
40.4741 15.3544 41.4408
15.3544 21.6026 -59.1512
41.4408 -59.1512 511.564
154.568 -16.9557 -1.17536
-16.9557 125.363 -100.28
-1.17536 -100.28 489.711
2.39209 5.63202 25.6117
5.63202 54.1376 -30.6705
25.6117 -30.6705 601.791
-16.5646 -30.004 18.3816
-30.004 -14.412 -42.4212
18.3816 -42.4212 534.719
71.038 -28.9209 -35.2921
-28.9209 -25.5158 43.3365
-35.2921 43.3365 475.375
-46.2544 -15.6932 17.9118
-15.6932 -27.5337 0.561368
17.9118 0.561368 394.813
19.3019 -15.7939 11.1784
-15.7939 -30.5917 -1.64913
11.1784 -1.64913 558.457
62.6125 11.1779 -28.004
11.1779 86.9716 120.608
-28.004 120.608 348.097
3.0136 6.68292 32.2259
6.68292 45.6229 5.5966
32.2259 5.5966 442.712
110.244 -13.6726 30.1992
-13.6726 42.1612 -71.9773
30.1992 -71.9773 514.697
142.587 -15.5493 20.7571
-15.5493 102.217 -85.3877
20.7571 -85.3877 451.053
44.3948 -35.9764 -40.2834
-35.9764 -13.2312 -79.101
-40.2834 -79.101 470.359
29.373 -0.252621 35.1408
-0.252621 39.7502 -99.2529
35.1408 -99.2529 480.865
14.0884 -2.47244 -23.7289
-2.47244 -39.4675 -6.79538
-23.7289 -6.79538 512.535
75.7284 7.67898 31.0559
7.67898 69.4176 -4.88898
31.0559 -4.88898 641.46
-23.1092 -22.1774 6.65772
-22.1774 -9.60762 -50.258
6.65772 -50.258 521.34
32.7479 -45.7583 25.4138
-45.7583 -49.617 21.9145
25.4138 21.9145 470.845
-32.0274 -48.7469 37.747
-48.7469 -35.6 -52.0015
37.747 -52.0015 503.1
40.1652 -5.54738 39.5515
-5.54738 4.71964 33.3266
39.5515 33.3266 520.394
56.2839 -8.86155 -20.0275
-8.86155 -1.72186 -39.4214
-20.0275 -39.4214 522.264
161.525 -30.7211 -22.2408
-30.7211 131.794 -15.2989
-22.2408 -15.2989 585.014
109.194 0.827823 5.26805
0.827823 93.8264 38.9207
5.26805 38.9207 509.33
37.6541 -19.8298 -0.985038
-19.8298 60.1855 59.7876
-0.985038 59.7876 412.26
-5.91497 15.2641 58.9326
15.2641 6.29159 24.0597
58.9326 24.0597 558.189
-28.1935 35.91 10.7342
35.91 -45.0235 -68.7703
10.7342 -68.7703 415.233
-23.1791 -36.0158 -17.9344
-36.0158 38.9126 33.1978
-17.9344 33.1978 537.616
92.8076 4.24919 39.096
4.24919 69.8137 13.7439
39.096 13.7439 486.25
14.0349 -9.04356 -16.9412
-9.04356 19.0115 -4.65205
-16.9412 -4.65205 549.346
59.6846 -19.3494 51.4004
-19.3494 3.55438 -0.581955
51.4004 -0.581955 520.22
92.8091 -2.01203 66.1612
-2.01203 101.13 2.39045
66.1612 2.39045 498.049
-68.6269 -1.62381 45.9813
-1.62381 21.3428 7.34762
45.9813 7.34762 446.731
135.128 -33.3968 -43.4478
-33.3968 96.3188 1.21631
-43.4478 1.21631 493.208

