# vtk DataFile Version 3.0
vtk output
ASCII
DATASET UNSTRUCTURED_GRID
FIELD FieldData 2
TIME 1 1 double
0.00100014
CYCLE 1 1 int
0
POINTS 102 float
0.607445 -5.00516 8.03489
-0.0217397 5.00385 -0.0735107
-0.54634 5.00063 8.05802
9.99826 5.00939 -0.0754832
0.450654 -4.99221 19.0566
-0.02 5 30
9.99629 5.00132 20.9065
-0.289159 5.00553 18.8899
-9.98781 -5.00156 20.7722
0.02 -5 30
-10 5 30
-10 -5 30
10.0011 4.99794 9.57841
10.0038 -4.9906 -0.0867027
9.99169 -5.00311 14.9343
-9.98113 5.00837 14.9351
-9.99999 -5.00962 9.16518
10 -5 30
-10.0017 4.99834 -0.0715461
-9.99621 -5.00165 -0.0827656
0.0237841 -4.99612 -0.0847381
10 5 30
0.317805 -4.99806 3.97353
-4.69042 -4.99792 3.97565
-4.98622 -4.99889 -0.0837518
-9.99219 -4.99253 25.3854
-4.98465 -4.99299 25.3832
-4.99 -5 30
5.01 -5 30
0.238542 -4.99086 24.5281
5.22559 -4.99503 24.5279
9.99348 -4.99663 22.4655
5.22138 -4.9971 16.9913
-4.76954 -4.99539 19.9057
9.99505 -4.99362 7.42002
5.30138 -4.99862 11.4787
5.30485 -4.99336 3.97189
5.01378 -4.99336 -0.0857204
0.532565 -4.99818 13.545
-9.99048 -5.00145 4.54227
-4.69429 -4.9997 8.59626
-9.99311 -4.98622 14.9619
-4.77094 -4.99046 14.1007
9.99659 5.00238 4.75286
9.9939 0.00430514 4.74611
10.001 0.00939423 -0.0810929
9.99484 -0.00341004 17.9218
9.99583 0.00230295 25.4575
9.99702 -0.00463464 12.2522
9.99463 4.99289 15.244
10 0 30
9.99716 4.99992 25.4555
-0.285383 4.99732 3.99215
4.72038 4.99917 3.99591
4.98826 5.00662 -0.074497
4.99067 4.99876 25.4569
4.99 5 30
-5.01 5 30
-0.147848 5.00063 24.4459
-5.13305 5.00126 24.4482
-9.97939 5.00676 22.4652
-5.13139 4.997 16.9072
4.85465 4.99501 19.8996
-9.98901 4.99923 7.4262
-5.26421 5.00077 11.4954
-5.27455 4.99712 3.992
-5.01174 5.0011 -0.0725284
-0.412572 4.99673 13.4723
4.72377 4.9976 8.82112
4.85732 4.9927 14.2339
-9.99086 -0.00416038 4.54151
-9.99898 -0.00165775 -0.0771559
-9.98845 0.00823346 17.8522
-9.98964 0.00306884 25.3807
-9.98965 0.00792882 12.0415
-10 0 30
-5.00898 0.00109972 -0.0781382
0.00102223 0.00386824 -0.0791244
5.01102 0.00663676 -0.0801106
0 0 30
-5.01 0 30
5.01 0 30
5.3015 0.00461782 3.97333
0.294521 -0.00200267 3.97361
0.0290604 -0.00343084 8.04559
0.0831741 0.00552802 18.9729
0.220408 0.00491193 24.5276
5.22454 -0.00135237 19.9844
-5.00322 0.0049547 25.3835
-5.13656 0.00234204 19.8274
5.01126 0.00257578 25.4601
5.30191 0.00118698 8.80157
0.163812 -0.00137696 13.4611
-4.76624 0.00297666 16.987
-5.27318 -0.00288055 3.99346
-4.68983 0.0036019 11.4767
5.22676 -0.00387041 14.311
-5.27077 0.00157364 8.60737
0.00102223 0.00386824 -0.0791244
0 0 0
0 0 30
0 0 30

CELLS 47 211
2 98 19
2 98 13
2 98 3
2 98 18
2 98 20
2 98 1
2 100 11
2 100 17
2 100 21
2 100 10
2 100 9
2 100 5
4 0 1 2 3
4 4 5 6 7
4 4 5 7 8
4 4 5 6 9
4 5 8 10 11
4 0 12 13 14
4 0 2 7 12
4 4 8 15 16
4 7 8 10 15
4 4 6 14 17
4 1 2 18 19
4 0 1 2 19
4 4 5 8 9
4 5 8 9 11
4 0 4 15 16
4 5 7 8 10
4 0 4 7 15
4 0 3 12 13
4 0 4 7 12
4 4 7 8 15
4 0 2 15 16
4 4 6 7 12
4 4 6 9 17
4 0 3 13 20
4 0 1 19 20
4 2 16 18 19
4 4 6 12 14
4 0 2 7 15
4 0 2 16 19
4 6 9 17 21
4 0 4 12 14
4 0 2 3 12
4 5 6 9 21
4 2 15 16 18
4 0 1 3 20

CELL_TYPES 47
3
3
3
3
3
3
3
3
3
3
3
3
10
10
10
10
10
10
10
10
10
10
10
10
10
10
10
10
10
10
10
10
10
10
10
10
10
10
10
10
10
10
10
10
10
10
10

POINT_DATA 102
SCALARS NODE_ID int 1
LOOKUP_TABLE default
20
18
22
6
19
16
15
21
10
11
7
2
14
4
12
17
9
3
8
1
13
5
23
24
25
26
27
28
29
30
31
32
33
34
35
36
37
38
39
40
41
42
43
44
45
46
47
48
49
50
51
52
53
54
55
56
57
58
59
60
61
62
63
64
65
66
67
68
69
70
71
72
73
74
75
76
77
78
79
80
81
82
83
84
85
86
87
88
89
90
91
92
93
94
95
96
97
98
99
100
101
102

SCALARS Time_Step float 1
LOOKUP_TABLE default
1.00024e-06
1.47838e+07
1.0002e-06
1.51395e+07
1.00104e-06
2.09559e+07
1.00097e-06
1.00081e-06
1.00058e-06
1.77935e+07
1.35445e+07
9.84791e+06
1.00077e-06
1.28134e+07
1.00108e-06
1.00032e-06
1.00023e-06
1.34359e+07
1.27647e+07
1.5174e+07
1.13089e+07
9.76738e+06
1.00024e-06
1.00041e-06
1.00074e-06
1.00108e-06
1.00062e-06
1.00138e-06
1.00115e-06
1.00182e-06
1.0018e-06
1.00183e-06
1.00122e-06
1.00082e-06
1.00098e-06
1.00089e-06
1.00074e-06
1.00058e-06
1.00143e-06
1.00036e-06
1.00043e-06
1.00125e-06
1.00138e-06
1.0006e-06
1.00107e-06
1.00071e-06
1.00129e-06
1.00123e-06
1.00098e-06
1.00153e-06
1.00069e-06
1.00049e-06
1.00059e-06
1.00132e-06
1.00073e-06
1.00091e-06
1.00068e-06
1.00078e-06
1.00138e-06
1.00139e-06
1.00142e-06
1.0007e-06
1.00176e-06
1.00101e-06
1.00037e-06
1.00047e-06
1.0003e-06
1.00126e-06
1.00084e-06
1.0011e-06
1.00074e-06
1.00034e-06
1.00092e-06
1.00093e-06
1.00019e-06
1.00126e-06
1.00044e-06
1.00052e-06
1.00039e-06
1.00074e-06
1.00108e-06
1.00049e-06
1.00053e-06
1.00042e-06
1.00033e-06
1.00077e-06
1.0016e-06
1.00163e-06
1.00071e-06
1.00067e-06
1.00089e-06
1.00069e-06
1.00106e-06
1.00074e-06
1.00019e-06
1.00036e-06
1.00135e-06
1.00044e-06
1.00018e-06
1e+06
1.00057e-06
1e+06

SCALARS Mass_Change float 1
LOOKUP_TABLE default
2.2422
0
2.30027
0
2.01901
0
1.68804
2.04981
2.05601
0
0
0
1.65365
0
1.21511
2.53436
2.3947
0
0
0
0
0
2.31431
2.26469
2.61175
1.57571
1.35447
1.57575
2.23139
2.32331
1.67151
0.876327
1.3781
2.52078
0.804042
1.19955
1.88587
2.05771
2.06006
2.45872
3.57507
0.751165
1.29388
2.27066
1.82733
2.77493
1.23034
1.66369
1.35351
1.36066
1.64749
1.64506
2.48718
1.83623
2.41868
1.95517
1.64466
2.22981
1.67708
1.6695
0.829841
2.71296
1.07589
0.784109
2.84691
1.8988
2.05147
1.20458
1.17278
1.61888
1.8458
2.83722
2.70845
1.64311
2.36797
1.57809
2.5041
2.44508
2.16806
1.88685
1.57571
1.64506
2.28567
2.57106
2.49283
2.5031
1.62474
1.70208
1.65405
2.86202
2.33662
1.75369
1.76339
2.91874
2.45514
3.02926
1.80187
3.07308
2.24947
0
1.76722
0

VECTORS Velocity float
-199.766 366.315 -1779.11
-127.881 45.5629 -2861.97
2082.81 -156.691 -4685.1
-127.622 -505.135 -3199.69
552.631 -732.612 -2205.75
0 0 0
-373.544 385.17 -510.118
1855.14 1285.49 -1392.94
810.621 -742.302 171.435
0 0 0
0 0 0
0 0 0
810.025 1233.59 -2039.48
-677.615 -505.34 -3301.45
1071.28 1388.21 -1061.14
593.902 1768.66 -2144.59
-2866.04 -1746.7 -46.84
0 0 0
-128.138 594.062 -2525.59
-678.131 593.857 -2627.35
-677.872 43.1592 -2965.07
0 0 0
61.7217 19.2729 -2200.89
-1004.17 -179.149 -2324.1
-678.002 318.508 -2796.21
1325.7 155.054 -298.27
473.815 37.9077 -615.641
0 0 0
0 0 0
315.441 -134.66 -981.003
-471.949 153.855 -923.422
-538.028 41.662 -875.798
407.392 565.354 -2557.6
1087.78 198.848 -1087
1394.53 2247.02 -3246.19
1595.1 1024.35 -3176.49
328.226 1795.41 -2470.89
-677.743 -231.09 -3133.26
905.735 -13.07 -2143.65
-1472.22 -166.388 -1637.39
-1030.08 -75.7218 -2223.33
1313.47 569.154 -175.234
720.742 750.352 -2329
-5.1374 1947.49 -3071.58
566.407 2352.53 -3242.3
-402.618 -505.237 -3250.57
-462.274 366.489 -1523.7
128.231 -138.119 -1010.48
104.485 1223.64 -1856.48
-805.095 652.869 -1013.1
0 0 0
121.345 -436.974 -245.264
295.828 -487.677 -3478.57
-42.0189 555.644 -3054.99
-127.751 -229.786 -3030.83
280.265 -3.979 -35.8516
0 0 0
0 0 0
863.875 192.118 -805.236
562.832 8.82984 -599.105
1635.49 421.971 -980.836
1160.29 1114.71 -2036.46
258.662 -132.981 -1043.08
-1269.8 -1379.94 -2048.81
132.547 416.97 -3850.54
-315.309 -89.3584 -2347.9
-128.009 319.812 -2693.78
290.942 294.377 -2970.87
655.75 889.197 -2418.1
-23.3469 77.2898 -2079.5
-461.605 -485.661 -2396.34
-403.135 593.959 -2576.47
1278.82 532.689 -1161.96
1482.15 -224.769 -1026.69
460.607 -10.8602 -1134.43
0 0 0
-403.006 319.71 -2744.66
-402.876 44.3611 -2913.52
-402.747 -230.988 -3082.38
0 0 0
0 0 0
0 0 0
-3.00005 1123.94 -3289.05
-162.594 -309.455 -2909.71
620.009 -273.375 -2734.34
788.676 275.293 -1791.24
437.696 130.842 -790.499
-137.889 -356.05 -1152.69
816.801 438.031 -891.434
1264.25 722.519 -1416.48
150.233 -135.284 -442.016
897.097 1187.95 -2853.86
373.223 609.154 -2358.74
1079.62 871.059 -1713.25
-613.64 -567.549 -2509.82
338.722 290.242 -2318.69
97.0917 776.758 -2397
-199.949 -126.043 -2309.46
-402.876 44.3611 -2913.52
0 0 0
0 0 0
0 0 0

VECTORS Displacement float
0.00122005 -0.00515615 -0.0566886
-0.00173965 0.00385328 -0.0735107
0.00799325 0.000629071 -0.0659196
-0.00174138 0.00939032 -0.0754832
-0.00309544 0.0077869 -0.0241945
0 0 0
-0.00370581 0.00131588 -0.0334581
-0.00137122 0.0055288 -0.0329582
0.0121938 -0.00156373 -0.0177814
0 0 0
0 0 0
0 0 0
0.00110575 -0.00206492 -0.0515916
0.0037824 0.00939814 -0.0867027
-0.0083075 -0.00311163 -0.0356822
0.0188692 0.0083657 -0.0349417
9.88341e-06 -0.00962034 -0.0448189
0 0 0
-0.00173794 -0.00166166 -0.0715461
0.00378584 -0.00165384 -0.0827656
0.00378412 0.0038832 -0.0847381
0 0 0
0.00469287 0.00193605 -0.0722606
0.00647226 0.00207822 -0.0701398
0.00378498 0.00111468 -0.0837518
0.00780653 0.0074688 -0.00963053
0.00534634 0.00701454 -0.0117862
0 0 0
0 0 0
0.00166725 0.00913941 -0.0123375
-0.00127993 0.00496926 -0.0124444
-0.00651999 0.00336527 -0.0195397
-0.00549746 0.00290051 -0.034106
0.00358532 0.00460637 -0.0296839
-0.0049508 0.00637514 -0.0649804
-0.00173163 0.00138364 -0.0520648
0.00173626 0.00663862 -0.0738961
0.00378326 0.00664067 -0.0857204
0.00257789 0.00181792 -0.0411553
0.00951958 -0.001451 -0.0627286
0.00260098 0.000298427 -0.0545289
0.0068893 0.0137798 -0.0381334
0.00218786 0.0095376 -0.0447123
-0.00340748 0.00238325 -0.0621367
-0.00609695 0.00430514 -0.0688933
0.00102051 0.00939423 -0.0810929
-0.00515633 -0.00341004 -0.0332276
-0.00416872 0.00230295 -0.0125497
-0.00297566 -0.00463464 -0.0477534
-0.00537198 -0.0071106 -0.0410424
0 0 0
-0.00283931 -7.73838e-05 -0.0144502
0.00178354 -0.00267867 -0.0698171
-0.00245154 -0.00082749 -0.0660586
-0.00174051 0.0066218 -0.074497
0.000671287 -0.00124088 -0.0131125
0 0 0
0 0 0
0.00604614 0.000632329 -0.0155136
0.0108471 0.00125912 -0.0131937
0.0206051 0.00675999 -0.0198417
0.0125016 -0.00300397 -0.0392505
-0.00146028 -0.00499103 -0.0318119
0.0109929 -0.000774862 -0.0587975
0.012956 0.000773968 -0.0515625
0.00262032 -0.00288302 -0.069971
-0.00173879 0.00109581 -0.0725284
0.00848862 -0.00326941 -0.0511153
0.000936713 -0.0023978 -0.0558534
0.00121463 -0.0072989 -0.0425423
0.00913578 -0.00416038 -0.0634879
0.00102395 -0.00165775 -0.0771559
0.0115463 0.00823346 -0.0278184
0.0103589 0.00306884 -0.0143441
0.010355 0.00792882 -0.0485391
0 0 0
0.0010231 0.00109972 -0.0781382
0.00102223 0.00386824 -0.0791244
0.00102137 0.00663676 -0.0801106
0 0 0
0 0 0
0 0 0
-0.00161623 0.00461782 -0.0724629
0.00140814 -0.00200267 -0.0721816
0.00311468 -0.00343084 -0.0621743
0.000193534 0.00552802 -0.028938
0.00353366 0.00491193 -0.0128343
-0.00233258 -0.00135237 -0.0260098
0.0067802 0.0049547 -0.0114645
0.00733079 0.00234204 -0.0290749
0.00125601 0.00257578 -0.00991825
-0.0011981 0.00118698 -0.0592227
0.00459328 -0.00137696 -0.0460796
0.00688294 0.00297666 -0.0383722
0.00398538 -0.00288055 -0.0685115
0.00705776 0.0036019 -0.0540843
-0.000112517 -0.00387041 -0.0443669
0.0063999 0.00157364 -0.0596049
0.00102223 0.00386824 -0.0791244
0 0 0
0 0 0
0 0 0

VECTORS Acceleration float
-2.99655e+07 1.77472e+08 1.95586e+08
4.35434e+07 -3.98956e+07 1.41066e+08
-2.60333e+08 -2.24024e+08 4.79098e+08
4.35691e+07 -1.43926e+08 2.11865e+08
1.26085e+08 -3.69703e+07 5.83205e+07
0 0 0
-6.95444e+07 -6.38713e+07 6.48443e+07
5.98917e+07 -2.23826e+08 2.98508e+08
-6.68707e+07 1.81993e+08 -5.26761e+07
0 0 0
0 0 0
0 0 0
-1.0797e+08 -2.0592e+08 1.80495e+08
-6.01537e+07 -1.44079e+08 3.30214e+08
1.81201e+08 7.31166e+06 1.6366e+07
-3.57603e+08 -2.95826e+08 2.89478e+08
2.62755e+08 2.43693e+08 3.28319e+07
0 0 0
4.35179e+07 6.37192e+07 7.05497e+07
-6.02049e+07 6.35661e+07 1.88898e+08
-6.01792e+07 -4.0464e+07 2.59697e+08
0 0 0
-9.07388e+07 -5.22449e+07 -4.52287e+07
-5.01311e+07 -5.14255e+07 -5.09516e+07
4.34713e+06 3.5572e+08 1.31557e+09
1.11009e+08 -2.0616e+08 8.92345e+06
8.14493e+06 1.204e+07 1.46603e+08
3.2567e+08 7.26715e+08 -1.81936e+09
5.39791e+07 4.42044e+07 -4.95784e+08
-8.09005e+07 -1.278e+08 5.70757e+07
4.76324e+07 -2.16369e+07 -1.52975e+07
349543 -1.03959e+08 1.55225e+08
3.07522e+07 -7.25761e+07 1.35538e+08
1.1281e+07 -2.01744e+07 2.36338e+08
1.24451e+08 -9.45637e+07 4.53827e+07
-2.02027e+07 -4.49171e+06 8.70254e+07
-8.88259e+07 -3.70251e+07 -2.18918e+07
-1.45066e+08 4.7897e+08 1.38993e+09
-6.42604e+07 -276922 -6.91974e+07
-1.94883e+08 -1.81221e+08 3.99229e+07
-1.0525e+08 -1.64683e+08 7.5077e+07
-1.04335e+08 -4.43075e+08 1.62103e+08
3.37894e+06 -3.00334e+08 1.04951e+08
-6.73451e+07 -3.88048e+07 -1.5481e+08
2.27575e+08 3.47916e+07 4.24137e+07
-2.49817e+08 9.58115e+06 4.47421e+08
-7.07254e+07 1.01509e+08 1.57289e+07
3.69491e+07 4.41068e+07 -7.87816e+07
2.51911e+07 4.28465e+07 9.83427e+07
1.66185e+08 1.0716e+08 -5.14084e+06
-3.25734e+08 1.64066e+08 -1.2957e+09
-5.15615e+07 -6.14251e+07 2.68996e+06
-2.00887e+07 1.11283e+08 3.6801e+07
1.03388e+08 1.66492e+08 -1.4741e+08
-6.68311e+06 -5.55316e+07 4.66921e+08
4.79998e+07 4.04575e+07 -2.29321e+07
9.64809e+07 -2.8258e+08 -1.25714e+09
5.48457e+07 -1.4778e+08 -2.8706e+08
-1.65104e+08 8.15782e+07 -9.78133e+07
-2.67706e+08 6.82091e+07 -1.8493e+07
-2.9863e+08 -2.03262e+08 -4.10503e+07
-8.32972e+07 2.43625e+08 9.19041e+07
-9.1612e+07 2.85506e+08 1.27902e+08
-1.1693e+08 7.61493e+07 -1.9684e+07
3.75562e+07 6.72053e+07 -7.11972e+07
1.14666e+08 1.54215e+07 8.93711e+07
1.79652e+08 -3.4175e+08 8.36755e+08
-3.78007e+08 1.73423e+08 7.36046e+07
1.22909e+07 5.64203e+07 -5.57544e+07
-6.03599e+07 9.06658e+07 768474
-1.92943e+08 -1.72404e+07 1.25568e+08
2.42009e+08 -1.0815e+08 4.21044e+08
6.62711e+07 -1.28096e+08 -1.23274e+07
-7.28102e+07 -2.03448e+07 1.19228e+08
-6.80228e+07 -2.7153e+08 1.96488e+08
7.16075e+08 4.13937e+08 -1.99163e+09
-3.3606e+07 -7.44257e+07 6.20242e+08
-3.32703e+07 -1.13743e+08 7.47866e+08
-9.56616e+07 -1.01831e+08 8.02457e+08
-9.04505e+06 3.95024e+07 -4.7498e+08
3.61684e+08 2.40961e+08 -1.55477e+09
6.18088e+07 1.64186e+08 -1.07792e+09
7.31702e+07 -1.88185e+08 1.43185e+08
1.24649e+07 1.11555e+07 2.0989e+08
2.55658e+07 6.12642e+07 -1.41994e+07
-7.80769e+07 1.83856e+07 -1.38976e+07
-9.86425e+07 -9.24274e+07 -3.8422e+07
6.08223e+07 1.29848e+08 -7.43241e+07
-2.7418e+07 -2.06855e+08 9.95208e+07
4.15954e+06 1.88294e+07 2.77896e+07
-8.54794e+07 -4.21411e+07 -1.14901e+08
3.11689e+07 -1.55996e+08 5.08081e+07
-1.11032e+08 3.74746e+07 -2.73822e+07
1.97576e+07 8.97128e+07 1.11687e+08
7.75545e+07 1.16683e+08 -1.72046e+08
6.29362e+07 -3.02275e+07 1.12368e+08
-5.49931e+07 1.09221e+08 8.02318e+07
-8.73149e+07 -1.32248e+08 8.14299e+07
-8.3179e+06 -4.01798e+07 2.00382e+08
0 0 0
0 0 0
0 0 0

VECTORS Contact_Forces float
0 0 0
0 0 0
0 0 0
0 0 0
0 0 0
0 0 0
0 0 0
0 0 0
0 0 0
0 0 0
0 0 0
0 0 0
0 0 0
0 0 0
0 0 0
0 0 0
0 0 0
0 0 0
0 0 0
0 0 0
0 0 0
0 0 0
0 0 0
0 0 0
0 0 0
0 0 0
0 0 0
0 0 0
0 0 0
0 0 0
0 0 0
0 0 0
0 0 0
0 0 0
0 0 0
0 0 0
0 0 0
0 0 0
0 0 0
0 0 0
0 0 0
0 0 0
0 0 0
0 0 0
0 0 0
0 0 0
0 0 0
0 0 0
0 0 0
0 0 0
0 0 0
0 0 0
0 0 0
0 0 0
0 0 0
0 0 0
0 0 0
0 0 0
0 0 0
0 0 0
0 0 0
0 0 0
0 0 0
0 0 0
0 0 0
0 0 0
0 0 0
0 0 0
0 0 0
0 0 0
0 0 0
0 0 0
0 0 0
0 0 0
0 0 0
0 0 0
0 0 0
0 0 0
0 0 0
0 0 0
0 0 0
0 0 0
0 0 0
0 0 0
0 0 0
0 0 0
0 0 0
0 0 0
0 0 0
0 0 0
0 0 0
0 0 0
0 0 0
0 0 0
0 0 0
0 0 0
0 0 0
0 0 0
0 0 0
0 0 0
0 0 0
0 0 0

VECTORS Contact_Pressure_/_Normal float
0 0 0
0 0 0
0 0 0
0 0 0
0 0 0
0 0 0
0 0 0
0 0 0
0 0 0
0 0 0
0 0 0
0 0 0
0 0 0
0 0 0
0 0 0
0 0 0
0 0 0
0 0 0
0 0 0
0 0 0
0 0 0
0 0 0
0 0 0
0 0 0
0 0 0
0 0 0
0 0 0
0 0 0
0 0 0
0 0 0
0 0 0
0 0 0
0 0 0
0 0 0
0 0 0
0 0 0
0 0 0
0 0 0
0 0 0
0 0 0
0 0 0
0 0 0
0 0 0
0 0 0
0 0 0
0 0 0
0 0 0
0 0 0
0 0 0
0 0 0
0 0 0
0 0 0
0 0 0
0 0 0
0 0 0
0 0 0
0 0 0
0 0 0
0 0 0
0 0 0
0 0 0
0 0 0
0 0 0
0 0 0
0 0 0
0 0 0
0 0 0
0 0 0
0 0 0
0 0 0
0 0 0
0 0 0
0 0 0
0 0 0
0 0 0
0 0 0
0 0 0
0 0 0
0 0 0
0 0 0
0 0 0
0 0 0
0 0 0
0 0 0
0 0 0
0 0 0
0 0 0
0 0 0
0 0 0
0 0 0
0 0 0
0 0 0
0 0 0
0 0 0
0 0 0
0 0 0
0 0 0
0 0 0
0 0 0
0 0 0
0 0 0
0 0 0

VECTORS Contact_Pressure_/_Tangent float
0 0 0
0 0 0
0 0 0
0 0 0
0 0 0
0 0 0
0 0 0
0 0 0
0 0 0
0 0 0
0 0 0
0 0 0
0 0 0
0 0 0
0 0 0
0 0 0
0 0 0
0 0 0
0 0 0
0 0 0
0 0 0
0 0 0
0 0 0
0 0 0
0 0 0
0 0 0
0 0 0
0 0 0
0 0 0
0 0 0
0 0 0
0 0 0
0 0 0
0 0 0
0 0 0
0 0 0
0 0 0
0 0 0
0 0 0
0 0 0
0 0 0
0 0 0
0 0 0
0 0 0
0 0 0
0 0 0
0 0 0
0 0 0
0 0 0
0 0 0
0 0 0
0 0 0
0 0 0
0 0 0
0 0 0
0 0 0
0 0 0
0 0 0
0 0 0
0 0 0
0 0 0
0 0 0
0 0 0
0 0 0
0 0 0
0 0 0
0 0 0
0 0 0
0 0 0
0 0 0
0 0 0
0 0 0
0 0 0
0 0 0
0 0 0
0 0 0
0 0 0
0 0 0
0 0 0
0 0 0
0 0 0
0 0 0
0 0 0
0 0 0
0 0 0
0 0 0
0 0 0
0 0 0
0 0 0
0 0 0
0 0 0
0 0 0
0 0 0
0 0 0
0 0 0
0 0 0
0 0 0
0 0 0
0 0 0
0 0 0
0 0 0
0 0 0

VECTORS Tied_Contact_Forces float
0 0 0
0 0 0
0 0 0
0 0 0
0 0 0
0 0 0
0 0 0
0 0 0
0 0 0
0 0 0
0 0 0
0 0 0
0 0 0
0 0 0
0 0 0
0 0 0
0 0 0
0 0 0
0 0 0
0 0 0
0 0 0
0 0 0
0 0 0
0 0 0
0 0 0
0 0 0
0 0 0
0 0 0
0 0 0
0 0 0
0 0 0
0 0 0
0 0 0
0 0 0
0 0 0
0 0 0
0 0 0
0 0 0
0 0 0
0 0 0
0 0 0
0 0 0
0 0 0
0 0 0
0 0 0
0 0 0
0 0 0
0 0 0
0 0 0
0 0 0
0 0 0
0 0 0
0 0 0
0 0 0
0 0 0
0 0 0
0 0 0
0 0 0
0 0 0
0 0 0
0 0 0
0 0 0
0 0 0
0 0 0
0 0 0
0 0 0
0 0 0
0 0 0
0 0 0
0 0 0
0 0 0
0 0 0
0 0 0
0 0 0
0 0 0
0 0 0
0 0 0
0 0 0
0 0 0
0 0 0
0 0 0
0 0 0
0 0 0
0 0 0
0 0 0
0 0 0
0 0 0
0 0 0
0 0 0
0 0 0
0 0 0
0 0 0
0 0 0
0 0 0
0 0 0
0 0 0
0 0 0
0 0 0
0 0 0
0 0 0
0 0 0
0 0 0

CELL_DATA 47
SCALARS ELEMENT_ID int 1
LOOKUP_TABLE default
0
0
0
0
0
0
0
0
0
0
0
0
1
2
3
4
5
6
7
8
9
10
11
12
13
14
15
16
17
18
19
20
21
22
23
24
25
26
27
28
29
30
31
32
33
34
35

SCALARS PART_ID int 1
LOOKUP_TABLE default
36
36
36
36
36
36
37
37
37
37
37
37
1
1
1
1
1
1
1
1
1
1
1
1
1
1
1
1
1
1
1
1
1
1
1
1
1
1
1
1
1
1
1
1
1
1
1

SCALARS EROSION_STATUS int 1
LOOKUP_TABLE default
1
1
1
1
1
1
1
1
1
1
1
1
1
1
1
1
1
1
1
1
1
1
1
1
1
1
1
1
1
1
1
1
1
1
1
1
1
1
1
1
1
1
1
1
1
1
1

SCALARS 1DELEM_Plastic_Strain float 1
LOOKUP_TABLE default
0
0
0
0
0
0
0
0
0
0
0
0
0
0
0
0
0
0
0
0
0
0
0
0
0
0
0
0
0
0
0
0
0
0
0
0
0
0
0
0
0
0
0
0
0
0
0

SCALARS 1DELEM_Specific_Energy float 1
LOOKUP_TABLE default
0
0
0
0
0
0
0
0
0
0
0
0
0
0
0
0
0
0
0
0
0
0
0
0
0
0
0
0
0
0
0
0
0
0
0
0
0
0
0
0
0
0
0
0
0
0
0

SCALARS 1DELEM_Von_Mises float 1
LOOKUP_TABLE default
0
0
0
0
0
0
0
0
0
0
0
0
0
0
0
0
0
0
0
0
0
0
0
0
0
0
0
0
0
0
0
0
0
0
0
0
0
0
0
0
0
0
0
0
0
0
0

SCALARS 3DELEM_Plastic_Strain float 1
LOOKUP_TABLE default
0
0
0
0
0
0
0
0
0
0
0
0
0
0
0
0
0
0
0
0
0
0
0
0
0
0
0
0
0
0
0
0
0
0
0
0
0
0
0
0
0
0
0
0
0
0
0

SCALARS 3DELEM_Specific_Energy float 1
LOOKUP_TABLE default
0
0
0
0
0
0
0
0
0
0
0
0
1.05605e+08
1.62077e+08
1.61773e+08
1.17505e+08
1.67039e+08
1.42802e+08
1.3372e+08
1.91327e+08
1.50399e+08
1.30083e+08
6.0145e+07
1.04065e+08
1.39937e+08
1.48214e+08
1.37365e+08
1.41979e+08
1.51747e+08
1.26732e+08
1.43821e+08
1.9907e+08
1.34326e+08
1.2608e+08
1.22125e+08
1.16782e+08
1.27844e+08
1.45353e+08
1.37604e+08
1.32582e+08
1.56283e+08
1.12518e+08
1.44537e+08
1.18682e+08
1.14381e+08
1.15248e+08
7.45243e+07

SCALARS 3DELEM_Von_Mises float 1
LOOKUP_TABLE default
0
0
0
0
0
0
0
0
0
0
0
0
492.848
668.895
647.359
548.083
604.419
607.937
606.791
673.604
592.954
590.644
288.374
474.501
576.825
531.875
472.672
608.922
633.339
540.518
611.227
700.171
413.613
559.917
537.45
457.618
470.534
514.797
612.043
545.205
531.984
483.925
638.484
540.768
483.68
483.145
367.558

TENSORS 3DELEM_Stress float
0 0 0 
0 0 0 
0 0 0 
0 0 0 
0 0 0 
0 0 0 
0 0 0 
0 0 0 
0 0 0 
0 0 0 
0 0 0 
0 0 0 
0 0 0 
0 0 0 
0 0 0 
0 0 0 
0 0 0 
0 0 0 
0 0 0 
0 0 0 
0 0 0 
0 0 0 
0 0 0 
0 0 0 
0 0 0 
0 0 0 
0 0 0 
0 0 0 
0 0 0 
0 0 0 
0 0 0 
0 0 0 
0 0 0 
0 0 0 
0 0 0 
0 0 0 
-8.66552 58.7133 -10.7043
58.7133 26.6352 34.5431
-10.7043 34.5431 486.164
5.15213 -51.5625 -40.82
-51.5625 7.62512 34.1733
-40.82 34.1733 662.847
-4.07641 72.9779 3.41
72.9779 48.6848 53.4856
3.41 53.4856 648.716
65.5165 -27.8731 -39.0863
-27.8731 10.8106 6.53842
-39.0863 6.53842 577.708
150.11 36.5184 -109.999
36.5184 136.641 -129.093
-109.999 -129.093 667.675
-14.7337 -2.21418 -43.0393
-2.21418 10.1588 3.66774
-43.0393 3.66774 600.63
-76.0848 46.4183 -29.499
46.4183 20.6866 73.3858
-29.499 73.3858 551.905
-11.2135 -13.7639 -42.0413
-13.7639 -30.7953 -74.3854
-42.0413 -74.3854 635.49
-112.227 23.4263 -7.82376
23.4263 78.4346 -57.7201
-7.82376 -57.7201 542.125
19.1334 15.1123 28.3479
15.1123 -4.68318 5.01253
28.3479 5.01253 594.817
133.434 -9.55118 -44.775
-9.55118 147.167 66.6629
-44.775 66.6629 392.09
67.1017 -9.064 -27.972
-9.064 53.6882 -8.70966
-27.972 -8.70966 531.771
42.629 40.26 -19.6368
40.26 53.4528 7.19301
-19.6368 7.19301 619.411
175.798 8.04542 -104.041
8.04542 182.346 -125.635
-104.041 -125.635 629.448
86.8852 -8.91567 9.04454
-8.91567 6.7131 -0.0606844
9.04454 -0.0606844 513.826
-10.1319 59.8316 24.1174
59.8316 10.4313 -78.1873
24.1174 -78.1873 582.94
7.53712 17.9393 6.29292
17.9393 -21.1316 11.9732
6.29292 11.9732 624.857
8.77856 1.0443 -5.62586
1.0443 82.0303 -30.3392
-5.62586 -30.3392 579.517
-4.93205 -20.9034 -9.31384
-20.9034 24.4235 -37.956
-9.31384 -37.956 615.6
-55.0088 50.1387 -21.8897
50.1387 -8.75966 -37.4796
-21.8897 -37.4796 657.639
29.8987 9.37199 44.482
9.37199 85.1181 -16.6424
44.482 -16.6424 459.7
-25.7573 -47.6192 5.341
-47.6192 -17.9398 -41.5977
5.341 -41.5977 527.134
-3.67675 -4.15813 -8.50238
-4.15813 55.7484 11.4204
-8.50238 11.4204 560.399
152.246 11.1866 32.6923
11.1866 167.663 -67.2429
32.6923 -67.2429 598.234
178.383 -28.1836 -4.85652
-28.1836 142.812 6.80708
-4.85652 6.80708 627.353
-30.3032 9.8963 -0.774059
9.8963 82.6458 30.0115
-0.774059 30.0115 528.615
7.25655 12.8247 6.297
12.8247 -10.32 -20.4277
6.297 -20.4277 608.796
10.9805 1.45141 -34.4411
1.45141 41.7977 -7.30517
-34.4411 -7.30517 567.509
72.7446 -3.9329 -11.3473
-3.9329 110.855 -66.9451
-11.3473 -66.9451 609.525
87.7286 8.65855 -59.726
8.65855 137.874 4.81749
-59.726 4.81749 583.228
-11.343 15.5361 -38.9422
15.5361 -12.8214 -38.4396
-38.9422 -38.4396 618.753
20.3801 72.2447 39.546
72.2447 -20.7532 57.2972
39.546 57.2972 510.659
131.134 4.61277 -38.2631
4.61277 126.061 -28.3697
-38.2631 -28.3697 605.102
-4.04147 21.6478 85.4533
21.6478 61.1737 2.80083
85.4533 2.80083 483.432
67.1698 27.2012 -39.0048
27.2012 52.5573 -31.4174
-39.0048 -31.4174 413.691

