# vtk DataFile Version 3.0
vtk output
ASCII
DATASET UNSTRUCTURED_GRID
FIELD FieldData 2
TIME 1 1 double
0.00300059
CYCLE 1 1 int
0
POINTS 102 float
0.611469 -4.98931 8.05746
-0.0126576 4.99926 -0.0507697
-0.562132 4.99931 8.09155
10.0073 5.00272 -0.0438536
0.444972 -4.97949 19.0803
-0.02 5 30
9.98818 4.98717 20.9145
-0.29363 4.99579 18.9084
-9.99991 -4.99079 20.7791
0.02 -5 30
-10 5 30
-10 -5 30
9.9904 4.98749 9.60129
10.0108 -4.99728 -0.0412955
9.98409 -5.00894 14.9397
-9.99354 4.98243 14.9475
-9.98653 -5.00207 9.17431
10 -5 30
-9.99265 4.99582 -0.0576582
-9.98921 -5.00418 -0.0551
0.0307888 -5.00072 -0.0481839
10 5 30
0.320394 -4.99689 4.00445
-4.68644 -5.00013 4.00281
-4.97921 -5.00245 -0.051642
-9.99961 -4.99459 25.3898
-4.99123 -4.9967 25.3896
-4.99 -5 30
5.01 -5 30
0.234056 -4.9944 24.5376
5.22505 -5.0019 24.5362
9.99586 -5.00428 22.4764
5.21572 -4.99663 17.0113
-4.77912 -4.99284 19.9241
9.99302 -5.00091 7.45604
5.29475 -4.99921 11.5067
5.30809 -5.00006 4.00767
5.02079 -4.999 -0.0447397
0.528801 -4.99202 13.567
-9.98514 -5.00136 4.5607
-4.6856 -4.99564 8.61669
-9.99367 -5.00204 14.9739
-4.76736 -4.99735 14.1224
9.99779 4.99607 4.78032
9.99808 -0.0013496 4.78351
10.0091 0.00271636 -0.0425745
9.99802 -0.0105928 17.9395
9.99512 -0.00182505 25.4644
9.99658 -0.00723773 12.2767
9.99674 4.99261 15.2604
10 0 30
9.9955 4.99885 25.4579
-0.284852 4.99653 4.01964
4.7248 4.9955 4.02319
4.99734 5.00099 -0.0473117
4.98766 5.00152 25.4634
4.99 5 30
-5.01 5 30
-0.155219 4.99959 24.456
-5.1442 5.00044 24.454
-10.0001 4.99995 22.4741
-5.14511 4.99498 16.9266
4.85307 4.99515 19.9167
-9.9929 4.99554 7.4439
-5.27686 4.99798 11.5212
-5.27261 4.99467 4.01563
-5.00266 4.99754 -0.0542139
-0.419699 4.99843 13.5016
4.7197 4.99864 8.8473
4.85816 4.99613 14.2567
-9.98787 -0.00223666 4.55947
-9.99093 -0.00418001 -0.0563791
-9.99753 -0.00292321 17.8611
-9.99935 0.00421212 25.3901
-9.99611 -0.00649995 12.0581
-10 0 30
-5.00093 -0.00245937 -0.0529348
0.00906563 -0.000731827 -0.0494768
5.01906 0.000995715 -0.0460188
0 0 30
-5.01 0 30
5.01 0 30
5.30602 -0.00185876 4.00767
0.298414 0.000113077 4.00361
0.0273349 0.00556968 8.07421
0.0792832 0.00610074 18.9905
0.215925 0.00217738 24.5356
5.22527 -0.00248989 20.0003
-5.01028 0.00276715 25.3905
-5.14573 0.00139471 19.842
5.00919 0.00012159 25.4665
5.29949 1.88279e-05 8.83222
0.159582 0.00221898 13.4853
-4.77456 -0.000178554 17.0051
-5.26794 -0.00190762 4.01666
-4.69287 0.00189862 11.5021
5.2256 -0.0025916 14.3366
-5.27161 0.000866605 8.63249
0.00906563 -0.000731827 -0.0494768
0 0 0
0 0 30
0 0 30

CELLS 47 211
2 98 19
2 98 13
2 98 3
2 98 18
2 98 20
2 98 1
2 100 11
2 100 17
2 100 21
2 100 10
2 100 9
2 100 5
4 0 1 2 3
4 4 5 6 7
4 4 5 7 8
4 4 5 6 9
4 5 8 10 11
4 0 12 13 14
4 0 2 7 12
4 4 8 15 16
4 7 8 10 15
4 4 6 14 17
4 1 2 18 19
4 0 1 2 19
4 4 5 8 9
4 5 8 9 11
4 0 4 15 16
4 5 7 8 10
4 0 4 7 15
4 0 3 12 13
4 0 4 7 12
4 4 7 8 15
4 0 2 15 16
4 4 6 7 12
4 4 6 9 17
4 0 3 13 20
4 0 1 19 20
4 2 16 18 19
4 4 6 12 14
4 0 2 7 15
4 0 2 16 19
4 6 9 17 21
4 0 4 12 14
4 0 2 3 12
4 5 6 9 21
4 2 15 16 18
4 0 1 3 20

CELL_TYPES 47
3
3
3
3
3
3
3
3
3
3
3
3
10
10
10
10
10
10
10
10
10
10
10
10
10
10
10
10
10
10
10
10
10
10
10
10
10
10
10
10
10
10
10
10
10
10
10

POINT_DATA 102
SCALARS NODE_ID int 1
LOOKUP_TABLE default
20
18
22
6
19
16
15
21
10
11
7
2
14
4
12
17
9
3
8
1
13
5
23
24
25
26
27
28
29
30
31
32
33
34
35
36
37
38
39
40
41
42
43
44
45
46
47
48
49
50
51
52
53
54
55
56
57
58
59
60
61
62
63
64
65
66
67
68
69
70
71
72
73
74
75
76
77
78
79
80
81
82
83
84
85
86
87
88
89
90
91
92
93
94
95
96
97
98
99
100
101
102

SCALARS Time_Step float 1
LOOKUP_TABLE default
1.00068e-06
1.47838e+07
1.00027e-06
1.51395e+07
1.00193e-06
2.09559e+07
1.00184e-06
1.00155e-06
1.00104e-06
1.77935e+07
1.35445e+07
9.84791e+06
1.00164e-06
1.28134e+07
1.00231e-06
1.00066e-06
1.00047e-06
1.34359e+07
1.27647e+07
1.5174e+07
1.13089e+07
9.76738e+06
1.00048e-06
1.00087e-06
1.00188e-06
1.00071e-06
1.00089e-06
1.00075e-06
1.00191e-06
1.0029e-06
1.00306e-06
1.00318e-06
1.00245e-06
1.00129e-06
1.00219e-06
1.00196e-06
1.00135e-06
1.00071e-06
1.00246e-06
1.00065e-06
1.00072e-06
1.00183e-06
1.00182e-06
1.00084e-06
1.00202e-06
1.00109e-06
1.00266e-06
1.00216e-06
1.00216e-06
1.00276e-06
1.00091e-06
1.00037e-06
1.00064e-06
1.00075e-06
1.00059e-06
1.00156e-06
1.00042e-06
1.00145e-06
1.00246e-06
1.00244e-06
1.00234e-06
1.00109e-06
1.00267e-06
1.00097e-06
1.0005e-06
1.0007e-06
1.00121e-06
1.0014e-06
1.00064e-06
1.00212e-06
1.00076e-06
1.00067e-06
1.00119e-06
1.00167e-06
1.00052e-06
1.00134e-06
1.00093e-06
1.0011e-06
1.0004e-06
1.00115e-06
1.00071e-06
1.00037e-06
1.00054e-06
1.00051e-06
1.00034e-06
1.00155e-06
1.00261e-06
1.00274e-06
1.00135e-06
1.00126e-06
1.00152e-06
1.00145e-06
1.00194e-06
1.00111e-06
1.00043e-06
1.00093e-06
1.00258e-06
1.00062e-06
1.00043e-06
1e+06
1.00106e-06
1e+06

SCALARS Mass_Change float 1
LOOKUP_TABLE default
2.2422
0
2.30027
0
2.01901
0
1.68804
2.04981
2.05601
0
0
0
1.65365
0
1.21511
2.53445
2.3947
0
0
0
0
0
2.31431
2.26565
2.61505
1.57571
1.35447
1.57575
2.23139
2.32331
1.67151
0.876327
1.3781
2.52078
0.804042
1.19955
1.88587
2.06013
2.06006
2.45949
3.57507
0.751165
1.29388
2.27066
1.82733
2.77493
1.23034
1.66369
1.35351
1.36066
1.64855
1.64506
2.48718
1.83623
2.41868
1.95553
1.64466
2.22981
1.67708
1.6695
0.829841
2.71296
1.07589
0.784109
2.84691
1.8988
2.05224
1.20458
1.17278
1.61888
1.8458
2.83722
2.70845
1.64311
2.36837
1.5791
2.50446
2.44585
2.16814
1.88685
1.57571
1.64506
2.28567
2.57106
2.49283
2.5031
1.62474
1.70208
1.65405
2.86202
2.33662
1.75369
1.76339
2.91874
2.45514
3.03041
1.80187
3.07308
2.24947
0
1.76722
0

VECTORS Velocity float
233.104 268.69 1668.08
229.343 86.617 2798.71
-334.043 290.014 1156.73
228.889 223.035 3418.13
445.143 253.643 1886.57
0 0 0
-63.509 73.5883 1210.9
-925.227 698.461 1045.39
-41.5721 315.634 674.562
0 0 0
0 0 0
0 0 0
20.3963 -329.208 2717.54
364.785 223.116 3562.41
1190.55 606.177 -353.094
926.554 212.775 2124.06
-1763.49 -1039.09 2546.28
0 0 0
229.796 -49.2559 2181.76
365.693 -49.1741 2326.04
365.238 87.2434 2945.46
0 0 0
-156.739 285.807 2521
-427.198 -56.136 2826.11
365.465 19.0346 2635.75
-908.23 165.401 44.3573
-363.927 386.018 329.293
0 0 0
0 0 0
-404.206 56.753 699.538
-181.428 -454.569 1014.58
147.849 -730.979 798.606
559.983 38.8772 1677.15
-12.134 167.869 909.645
-235.537 255.562 2702.77
86.2185 407.537 2633.6
180.234 63.807 2837.21
365.012 155.18 3253.94
630.509 319.459 2041.4
-530.183 -427.319 2754.88
-578.357 194.493 2174
11.4149 296.507 2093.94
209.948 558.484 1693.33
420.42 107.769 2918.35
382.918 387.248 3306.55
296.837 223.075 3490.27
582.293 -488.776 2222.68
22.1115 -216.302 667.89
558.098 408.168 2034.24
964.714 -106.089 2534.3
0 0 0
218.825 -22.7424 486.936
-124.232 -221.546 2289.44
10.4307 312.088 2994.53
229.116 154.826 3108.42
84.5146 600.305 718.673
0 0 0
0 0 0
-60.5198 689.662 598.321
149.762 1097.28 1199.47
380.181 1327.31 1015.47
404.001 468.553 955.62
67.7617 534.458 1276.42
-522.99 -47.6463 2383.82
-47.8273 725.74 1704.04
-354.901 -376.863 2325.97
229.57 18.6805 2490.23
266.934 677.975 1369.66
82.0887 565.554 2609.77
515.795 271.88 2364.55
71.6447 -68.0607 2680.54
297.744 -49.215 2253.9
-15.0392 1021.53 2029.93
-364.745 535.148 109.803
-282.465 -242.953 2414.88
0 0 0
297.518 18.7214 2562.37
297.291 86.9302 2872.09
297.063 155.139 3181.8
0 0 0
0 0 0
0 0 0
262.231 253.345 3122.39
73.75 44.0195 2808.15
307.004 277.177 2371.42
-299.641 425.955 1637.72
-97.4942 463.369 610.522
127.574 -77.2084 1460.11
-199.034 538.261 788.544
-44.4094 562.764 1340.29
-78.7601 88.7686 495.441
-29.1949 372.876 2694.88
369.876 452.395 2100.46
-92.2363 569.284 1554.87
-124.802 -181.58 2817.63
107.302 388.428 2154.39
477.741 404.034 2474.63
-146.018 309.525 2680.78
297.291 86.9302 2872.09
0 0 0
0 0 0
0 0 0

VECTORS Displacement float
0.00524375 0.0106907 -0.0341139
0.00734243 -0.000739183 -0.0507697
-0.00779851 -0.000691184 -0.0323902
0.00733945 0.0027159 -0.0438536
-0.00877751 0.0205062 -0.00044514
0 0 0
-0.0118199 -0.0128318 -0.0254914
-0.00584213 -0.00421245 -0.0144144
9.21613e-05 0.0092144 -0.0108635
0 0 0
0 0 0
0 0 0
-0.00960425 -0.0125123 -0.028708
0.0107859 0.00271682 -0.0412955
-0.0159093 -0.00894107 -0.0302602
0.00646365 -0.0175659 -0.0225318
0.0134728 -0.00207171 -0.035689
0 0 0
0.0073454 -0.00418047 -0.0576582
0.0107918 -0.00417955 -0.0551
0.0107888 -0.00072447 -0.0481839
0 0 0
0.00728188 0.00311089 -0.0413338
0.010443 -0.000132821 -0.0429829
0.0107903 -0.00245201 -0.051642
0.000394212 0.00541516 -0.00520658
-0.00123072 0.00329727 -0.00535495
0 0 0
0 0 0
-0.00281896 0.00560408 -0.00275692
-0.0018279 -0.00190414 -0.0041964
-0.00413785 -0.00428042 -0.0085742
-0.0111574 0.00336981 -0.0140712
-0.0059929 0.00715579 -0.0112941
-0.00698453 -0.000906946 -0.0289553
-0.00836348 0.000788962 -0.0240563
0.00498011 -5.76419e-05 -0.0381233
0.0107874 0.000996176 -0.0447397
-0.00118561 0.00797952 -0.0191362
0.0148652 -0.00136219 -0.0443036
0.0112842 0.00435914 -0.0341012
0.00633004 -0.00204303 -0.0260553
0.00576322 0.00265222 -0.0229556
-0.00221163 -0.00393095 -0.0346848
-0.00191998 -0.0013496 -0.031486
0.00906266 0.00271636 -0.0425745
-0.00198093 -0.0105928 -0.0155226
-0.00487881 -0.00182505 -0.00563219
-0.0034226 -0.00723773 -0.0232647
-0.00325677 -0.00739253 -0.0245519
0 0 0
-0.0044964 -0.00115124 -0.0121467
0.00231465 -0.00347008 -0.0423359
0.00196737 -0.00450116 -0.0387843
0.00734094 0.000988358 -0.0473117
-0.00234239 0.00151708 -0.00663596
0 0 0
0 0 0
-0.00132516 -0.000410597 -0.0054046
-0.000308156 0.00044059 -0.00740153
-0.000132158 -4.92172e-05 -0.0109176
-0.00121612 -0.00502402 -0.019827
-0.00303304 -0.00484976 -0.0147126
0.00710094 -0.00445504 -0.041099
0.000305446 -0.0020204 -0.0257803
0.00456042 -0.00532992 -0.0463416
0.00734391 -0.00245983 -0.0542139
0.00136175 -0.0015675 -0.0217937
-0.00313815 -0.00135741 -0.0296689
0.00204934 -0.00386737 -0.0196857
0.0121292 -0.00223666 -0.0455293
0.00906861 -0.00418001 -0.0563791
0.00247176 -0.00292321 -0.0188976
0.000652635 0.00421212 -0.00491364
0.00389376 -0.00649995 -0.0319339
0 0 0
0.00906712 -0.00245937 -0.0529348
0.00906563 -0.000731827 -0.0494768
0.00906414 0.000995715 -0.0460188
0 0 0
0 0 0
0 0 0
0.00290282 -0.00185876 -0.0381224
0.00530147 0.000113077 -0.0421769
0.00138908 0.00556968 -0.0335441
-0.00369735 0.00610074 -0.0113373
-0.000949203 0.00217738 -0.00481291
-0.00160515 -0.00248989 -0.010105
-0.000280213 0.00276715 -0.00453773
-0.00183291 0.00139471 -0.0144767
-0.00081405 0.00012159 -0.0034789
-0.00362026 1.88279e-05 -0.0285689
0.000363519 0.00221898 -0.0219544
-0.0014348 -0.000178554 -0.0203107
0.00922426 -0.00190762 -0.0453133
0.00401811 0.00189862 -0.0286779
-0.00127615 -0.0025916 -0.0188221
0.00555246 0.000866605 -0.0344846
0.00906563 -0.000731827 -0.0494768
0 0 0
0 0 0
0 0 0

VECTORS Acceleration float
-8.37309e+07 -2.15374e+08 -3.83416e+08
-1.2222e+08 -1.28469e+07 -4.47439e+08
2.54615e+08 -1.46245e+08 -4.43e+08
-1.22135e+08 -7.87339e+07 -5.84775e+08
1.54897e+08 -3.9024e+08 -5.88634e+08
0 0 0
1.02314e+08 1.99916e+08 4.08369e+07
2.09326e+08 -3.48787e+06 -2.6734e+08
1.47541e+08 -1.17723e+08 -2.12936e+08
0 0 0
0 0 0
0 0 0
9.51056e+07 2.23388e+08 -3.95394e+08
-1.87802e+08 -7.87781e+07 -6.78459e+08
1.49276e+08 1.50613e+08 -6.47051e+07
-2.14556e+07 2.95525e+08 -2.2141e+08
-1.57703e+08 1.11028e+08 -3.4291e+08
0 0 0
-1.22306e+08 5.27769e+07 -3.10652e+08
-1.87973e+08 5.27327e+07 -4.04336e+08
-1.87887e+08 -1.31542e+07 -5.41671e+08
0 0 0
2.44407e+07 4.93791e+07 -6.26631e+07
-1.84915e+07 1.0815e+08 -8.07133e+07
2.66005e+07 1.8669e+08 9.01334e+08
1.0074e+07 -3.52805e+06 -3.09924e+07
-2.9611e+07 8.31386e+07 -3.2587e+06
-5.72901e+07 2.89588e+08 -7.36561e+08
7.78863e+07 -1.20423e+08 -3.39458e+08
-3.20929e+07 1.44796e+08 9.7683e+07
-6.34659e+07 3.61683e+08 1.24209e+08
-1.64966e+08 3.94006e+07 -2.0509e+08
4.8937e+06 1.89943e+07 -2.42984e+07
6.64816e+07 1.41485e+08 1.2633e+08
1.04148e+08 4.93894e+07 -1.9639e+08
1.22085e+08 5.55985e+07 -2.50497e+08
1.16056e+06 2.05128e+08 -4.30387e+07
-2.34581e+08 5.45594e+07 8.33447e+08
-2.61572e+07 1.43732e+08 5.19372e+07
-4.46807e+07 -2.46581e+06 -4.87058e+07
-6.53753e+07 2.55569e+07 -2.83545e+07
2.33431e+07 1.31554e+08 6.38403e+07
-1.0068e+08 1.21961e+08 8.30853e+07
-1.1759e+07 -3.14298e+07 -5.54694e+07
5.26171e+06 -8.41892e+07 -1.34653e+08
-1.60265e+08 -7.7454e+06 4.80374e+08
-1.86689e+08 3.0099e+07 -3.35458e+08
-1.14752e+07 -5.60415e+07 -1.32539e+08
-1.57853e+08 -5.97735e+07 -1.77369e+08
-1.46176e+08 -1.58623e+08 -6.58611e+07
-2.07539e+08 2.38602e+08 -4.76265e+08
-5.95045e+07 -1.58399e+08 5.19845e+06
-5.95857e+07 5.41543e+07 1.7093e+07
-9.56054e+07 1.38855e+08 -1.19839e+07
7.74176e+06 -1.27736e+08 5.34462e+08
-3.49697e+07 -2.58407e+08 -1.10629e+08
2.03414e+08 -1.7402e+08 -4.16166e+08
-2.07834e+07 -3.48381e+07 -2.48392e+08
-1.4037e+06 -1.13784e+08 -5.72573e+07
-2.76783e+07 -1.25136e+08 1.71955e+07
2.09462e+08 -1.94773e+08 -2.85542e+07
3.46733e+07 -1.05219e+08 -2.40716e+07
-1.29324e+08 -1.03366e+08 -9.94078e+07
8.64956e+07 -1.65654e+08 9.41084e+06
1.62537e+07 -1.63526e+08 -7.8317e+07
-1.20398e+08 6.5978e+07 -3.48422e+07
1.4335e+08 -3.31647e+08 1.09522e+09
-2.17437e+08 3.54586e+06 -3.84002e+07
-1.31785e+08 -1.75014e+08 -6.85898e+07
-2.55262e+08 -1.31288e+08 -6.5372e+07
3.17153e+07 -7.0237e+07 -4.02703e+07
1.38216e+08 2.46391e+06 4.92268e+08
6.47791e+07 -2.40879e+07 8.11718e+06
5.06762e+07 -1.19545e+07 -1.16829e+07
1.60167e+08 -7.56588e+07 3.9897e+07
1.77329e+08 1.19612e+08 -5.73861e+08
7.34231e+07 6.55089e+06 4.3661e+08
-4.09048e+07 -8.01707e+07 8.31207e+08
-1.23047e+08 -1.94714e+08 9.00231e+08
-1.32775e+07 1.1424e+07 -2.58582e+08
-2.89103e+07 8.66571e+07 -5.51921e+08
2.59129e+07 2.71031e+08 -2.46787e+08
2.75862e+07 1.46674e+08 -8.36178e+07
6.69564e+07 5.65001e+07 -6.40622e+07
-8.00214e+07 -3.42211e+07 -2.84748e+07
-7.85478e+07 3.14762e+07 4.35233e+07
-2.03112e+07 1.45393e+08 1.35611e+08
-1.46036e+08 1.05955e+08 -5.70624e+07
3.23384e+06 -462055 -4.54764e+07
-1.09333e+07 9.24131e+06 -1.23041e+07
-3.94148e+07 -1.09166e+08 -1.51951e+08
4.77638e+07 -5.63356e+07 -1.14053e+08
-8.20612e+06 7.74578e+06 -7.73737e+07
1.0061e+08 1.31425e+07 1.23663e+08
-1.35478e+08 3.21302e+07 3.95086e+06
3.91286e+07 -1.12722e+08 -8.58229e+07
-1.18383e+08 9.76709e+07 6.22022e+07
-7.13967e+07 -2.31606e+07 -2.23814e+07
-1.55054e+08 -1.30006e+07 -4.94555e+08
0 0 0
0 0 0
0 0 0

VECTORS Contact_Forces float
0 0 0
0 0 0
0 0 0
0 0 0
0 0 0
0 0 0
0 0 0
0 0 0
0 0 0
0 0 0
0 0 0
0 0 0
0 0 0
0 0 0
0 0 0
0 0 0
0 0 0
0 0 0
0 0 0
0 0 0
0 0 0
0 0 0
0 0 0
0 0 0
0 0 0
0 0 0
0 0 0
0 0 0
0 0 0
0 0 0
0 0 0
0 0 0
0 0 0
0 0 0
0 0 0
0 0 0
0 0 0
0 0 0
0 0 0
0 0 0
0 0 0
0 0 0
0 0 0
0 0 0
0 0 0
0 0 0
0 0 0
0 0 0
0 0 0
0 0 0
0 0 0
0 0 0
0 0 0
0 0 0
0 0 0
0 0 0
0 0 0
0 0 0
0 0 0
0 0 0
0 0 0
0 0 0
0 0 0
0 0 0
0 0 0
0 0 0
0 0 0
0 0 0
0 0 0
0 0 0
0 0 0
0 0 0
0 0 0
0 0 0
0 0 0
0 0 0
0 0 0
0 0 0
0 0 0
0 0 0
0 0 0
0 0 0
0 0 0
0 0 0
0 0 0
0 0 0
0 0 0
0 0 0
0 0 0
0 0 0
0 0 0
0 0 0
0 0 0
0 0 0
0 0 0
0 0 0
0 0 0
0 0 0
0 0 0
0 0 0
0 0 0
0 0 0

VECTORS Contact_Pressure_/_Normal float
0 0 0
0 0 0
0 0 0
0 0 0
0 0 0
0 0 0
0 0 0
0 0 0
0 0 0
0 0 0
0 0 0
0 0 0
0 0 0
0 0 0
0 0 0
0 0 0
0 0 0
0 0 0
0 0 0
0 0 0
0 0 0
0 0 0
0 0 0
0 0 0
0 0 0
0 0 0
0 0 0
0 0 0
0 0 0
0 0 0
0 0 0
0 0 0
0 0 0
0 0 0
0 0 0
0 0 0
0 0 0
0 0 0
0 0 0
0 0 0
0 0 0
0 0 0
0 0 0
0 0 0
0 0 0
0 0 0
0 0 0
0 0 0
0 0 0
0 0 0
0 0 0
0 0 0
0 0 0
0 0 0
0 0 0
0 0 0
0 0 0
0 0 0
0 0 0
0 0 0
0 0 0
0 0 0
0 0 0
0 0 0
0 0 0
0 0 0
0 0 0
0 0 0
0 0 0
0 0 0
0 0 0
0 0 0
0 0 0
0 0 0
0 0 0
0 0 0
0 0 0
0 0 0
0 0 0
0 0 0
0 0 0
0 0 0
0 0 0
0 0 0
0 0 0
0 0 0
0 0 0
0 0 0
0 0 0
0 0 0
0 0 0
0 0 0
0 0 0
0 0 0
0 0 0
0 0 0
0 0 0
0 0 0
0 0 0
0 0 0
0 0 0
0 0 0

VECTORS Contact_Pressure_/_Tangent float
0 0 0
0 0 0
0 0 0
0 0 0
0 0 0
0 0 0
0 0 0
0 0 0
0 0 0
0 0 0
0 0 0
0 0 0
0 0 0
0 0 0
0 0 0
0 0 0
0 0 0
0 0 0
0 0 0
0 0 0
0 0 0
0 0 0
0 0 0
0 0 0
0 0 0
0 0 0
0 0 0
0 0 0
0 0 0
0 0 0
0 0 0
0 0 0
0 0 0
0 0 0
0 0 0
0 0 0
0 0 0
0 0 0
0 0 0
0 0 0
0 0 0
0 0 0
0 0 0
0 0 0
0 0 0
0 0 0
0 0 0
0 0 0
0 0 0
0 0 0
0 0 0
0 0 0
0 0 0
0 0 0
0 0 0
0 0 0
0 0 0
0 0 0
0 0 0
0 0 0
0 0 0
0 0 0
0 0 0
0 0 0
0 0 0
0 0 0
0 0 0
0 0 0
0 0 0
0 0 0
0 0 0
0 0 0
0 0 0
0 0 0
0 0 0
0 0 0
0 0 0
0 0 0
0 0 0
0 0 0
0 0 0
0 0 0
0 0 0
0 0 0
0 0 0
0 0 0
0 0 0
0 0 0
0 0 0
0 0 0
0 0 0
0 0 0
0 0 0
0 0 0
0 0 0
0 0 0
0 0 0
0 0 0
0 0 0
0 0 0
0 0 0
0 0 0

VECTORS Tied_Contact_Forces float
0 0 0
0 0 0
0 0 0
0 0 0
0 0 0
0 0 0
0 0 0
0 0 0
0 0 0
0 0 0
0 0 0
0 0 0
0 0 0
0 0 0
0 0 0
0 0 0
0 0 0
0 0 0
0 0 0
0 0 0
0 0 0
0 0 0
0 0 0
0 0 0
0 0 0
0 0 0
0 0 0
0 0 0
0 0 0
0 0 0
0 0 0
0 0 0
0 0 0
0 0 0
0 0 0
0 0 0
0 0 0
0 0 0
0 0 0
0 0 0
0 0 0
0 0 0
0 0 0
0 0 0
0 0 0
0 0 0
0 0 0
0 0 0
0 0 0
0 0 0
0 0 0
0 0 0
0 0 0
0 0 0
0 0 0
0 0 0
0 0 0
0 0 0
0 0 0
0 0 0
0 0 0
0 0 0
0 0 0
0 0 0
0 0 0
0 0 0
0 0 0
0 0 0
0 0 0
0 0 0
0 0 0
0 0 0
0 0 0
0 0 0
0 0 0
0 0 0
0 0 0
0 0 0
0 0 0
0 0 0
0 0 0
0 0 0
0 0 0
0 0 0
0 0 0
0 0 0
0 0 0
0 0 0
0 0 0
0 0 0
0 0 0
0 0 0
0 0 0
0 0 0
0 0 0
0 0 0
0 0 0
0 0 0
0 0 0
0 0 0
0 0 0
0 0 0

CELL_DATA 47
SCALARS ELEMENT_ID int 1
LOOKUP_TABLE default
0
0
0
0
0
0
0
0
0
0
0
0
1
2
3
4
5
6
7
8
9
10
11
12
13
14
15
16
17
18
19
20
21
22
23
24
25
26
27
28
29
30
31
32
33
34
35

SCALARS PART_ID int 1
LOOKUP_TABLE default
36
36
36
36
36
36
37
37
37
37
37
37
1
1
1
1
1
1
1
1
1
1
1
1
1
1
1
1
1
1
1
1
1
1
1
1
1
1
1
1
1
1
1
1
1
1
1

SCALARS EROSION_STATUS int 1
LOOKUP_TABLE default
1
1
1
1
1
1
1
1
1
1
1
1
1
1
1
1
1
1
1
1
1
1
1
1
1
1
1
1
1
1
1
1
1
1
1
1
1
1
1
1
1
1
1
1
1
1
1

SCALARS 1DELEM_Plastic_Strain float 1
LOOKUP_TABLE default
0
0
0
0
0
0
0
0
0
0
0
0
0
0
0
0
0
0
0
0
0
0
0
0
0
0
0
0
0
0
0
0
0
0
0
0
0
0
0
0
0
0
0
0
0
0
0

SCALARS 1DELEM_Specific_Energy float 1
LOOKUP_TABLE default
0
0
0
0
0
0
0
0
0
0
0
0
0
0
0
0
0
0
0
0
0
0
0
0
0
0
0
0
0
0
0
0
0
0
0
0
0
0
0
0
0
0
0
0
0
0
0

SCALARS 1DELEM_Von_Mises float 1
LOOKUP_TABLE default
0
0
0
0
0
0
0
0
0
0
0
0
0
0
0
0
0
0
0
0
0
0
0
0
0
0
0
0
0
0
0
0
0
0
0
0
0
0
0
0
0
0
0
0
0
0
0

SCALARS 3DELEM_Plastic_Strain float 1
LOOKUP_TABLE default
0
0
0
0
0
0
0
0
0
0
0
0
0
0
0
0
0
0
0
0
0
0
0
0
0
0
0
0
0
0
0
0
0
0
0
0
0
0
0
0
0
0
0
0
0
0
0

SCALARS 3DELEM_Specific_Energy float 1
LOOKUP_TABLE default
0
0
0
0
0
0
0
0
0
0
0
0
1.03352e+08
8.34425e+07
9.166e+07
6.84081e+07
4.80378e+07
8.3216e+07
9.75702e+07
1.12715e+08
8.17719e+07
7.31255e+07
8.32929e+07
8.95414e+07
6.53702e+07
4.81933e+07
9.79971e+07
6.10673e+07
9.86008e+07
1.05201e+08
1.01073e+08
1.86308e+08
1.10177e+08
9.70932e+07
8.54637e+07
8.33764e+07
7.969e+07
1.18959e+08
8.76603e+07
8.33992e+07
1.04729e+08
5.59125e+07
1.06379e+08
1.01411e+08
6.06185e+07
1.14208e+08
7.58117e+07

SCALARS 3DELEM_Von_Mises float 1
LOOKUP_TABLE default
0
0
0
0
0
0
0
0
0
0
0
0
449.74
300.653
382.043
214.399
213.377
325.621
443.256
479.698
386.312
274.347
380.637
441.721
269.26
212.718
399.122
319.086
417.937
468.313
406.085
517.156
403.717
342.002
220.726
357.611
368.594
483.794
331.536
350.9
468.089
223.505
436.619
438.361
218.46
471.438
359.871

TENSORS 3DELEM_Stress float
0 0 0 
0 0 0 
0 0 0 
0 0 0 
0 0 0 
0 0 0 
0 0 0 
0 0 0 
0 0 0 
0 0 0 
0 0 0 
0 0 0 
0 0 0 
0 0 0 
0 0 0 
0 0 0 
0 0 0 
0 0 0 
0 0 0 
0 0 0 
0 0 0 
0 0 0 
0 0 0 
0 0 0 
0 0 0 
0 0 0 
0 0 0 
0 0 0 
0 0 0 
0 0 0 
0 0 0 
0 0 0 
0 0 0 
0 0 0 
0 0 0 
0 0 0 
83.4291 -59.0932 -2.05502
-59.0932 20.413 -33.1075
-2.05502 -33.1075 482.63
93.0945 -71.1129 -22.9881
-71.1129 -3.07475 4.09035
-22.9881 4.09035 303.174
20.831 59.7011 -45.4983
59.7011 -83.2357 74.4316
-45.4983 74.4316 291.77
87.2996 -32.7906 -40.8365
-32.7906 54.3856 19.1229
-40.8365 19.1229 260.128
69.4293 -9.75636 -59.7699
-9.75636 65.0555 -0.233882
-59.7699 -0.233882 253.018
-17.3134 -13.4866 -20.1726
-13.4866 19.576 -44.5324
-20.1726 -44.5324 313.049
20.3268 -47.2544 -47.698
-47.2544 -0.320665 64.2703
-47.698 64.2703 422.604
-22.9485 30.7902 37.0485
30.7902 -49.0685 -51.628
37.0485 -51.628 427.285
5.38684 8.35882 59.5959
8.35882 -18.0815 3.35005
59.5959 3.35005 365.036
61.5056 -30.5922 11.4106
-30.5922 -1.24495 -2.46669
11.4106 -2.46669 292.992
107.946 -22.9616 -40.3421
-22.9616 88.6711 33.3734
-40.3421 33.3734 465.46
-28.63 -11.1729 47.1621
-11.1729 5.78877 4.84749
47.1621 4.84749 421.143
27.6458 29.2373 -55.1645
29.2373 -15.5762 74.1704
-55.1645 74.1704 213.164
62.9271 -9.59881 -47.3247
-9.59881 80.7261 12.2448
-47.3247 12.2448 265.647
-50.1972 32.3328 -44.9087
32.3328 16.9187 -12.7355
-44.9087 -12.7355 365.783
62.7448 -17.1213 -15.1731
-17.1213 20.1887 33.6425
-15.1731 33.6425 350.484
7.24215 61.7808 2.95591
61.7808 -116.995 2.99755
2.95591 2.99755 334.47
-17.6144 -7.49331 -44.8045
-7.49331 29.9262 -62.2953
-44.8045 -62.2953 453.134
33.2544 -41.3012 -17.3811
-41.3012 -44.8359 11.9392
-17.3811 11.9392 386.485
-39.5227 99.5923 38.0967
99.5923 -105.33 24.1944
38.0967 24.1944 405.419
21.8289 20.8133 34.6693
20.8133 -5.79546 11.958
34.6693 11.958 404.351
20.2628 -81.799 -53.2368
-81.799 -17.7897 -87.7274
-53.2368 -87.7274 254.645
49.9613 -65.692 26.3983
-65.692 148.777 -10.8024
26.3983 -10.8024 260.645
101.5 -43.0401 -49.2437
-43.0401 109.687 -65.3782
-49.2437 -65.3782 425.25
86.016 10.2081 11.8447
10.2081 88.8289 1.91564
11.8447 1.91564 454.997
33.4245 -50.1928 23.61
-50.1928 65.0883 20.4528
23.61 20.4528 521.294
47.7632 -44.8332 -72.7792
-44.8332 13.5821 -25.1759
-72.7792 -25.1759 322.594
45.4909 2.60294 -20.0551
2.60294 -46.0591 17.5164
-20.0551 17.5164 338.385
-50.2416 -12.282 46.1555
-12.282 13.3105 10.7032
46.1555 10.7032 438.581
2.67679 -12.818 -37.9357
-12.818 80.5978 33.8958
-37.9357 33.8958 234.365
-152.787 15.2782 0.950965
15.2782 -100.909 -21.5868
0.950965 -21.5868 305.028
-33.9996 -54.8933 33.3869
-54.8933 3.9761 -51.3727
33.3869 -51.3727 398.24
73.2626 -34.4258 -40.8672
-34.4258 131.29 -16.4479
-40.8672 -16.4479 291.543
1.063 7.74793 -5.26786
7.74793 37.8862 -0.634643
-5.26786 -0.634643 489.552
94.7154 -32.4478 -37.4716
-32.4478 84.5957 -37.8194
-37.4716 -37.8194 432.829

