# vtk DataFile Version 3.0
vtk output
ASCII
DATASET UNSTRUCTURED_GRID
FIELD FieldData 2
TIME 1 1 double
0.00900037
CYCLE 1 1 int
0
POINTS 102 float
0.613136 -4.99759 8.04082
-0.0196083 5.00292 -0.0684758
-0.560654 4.99406 8.08081
10.0004 5.0034 -0.0723381
0.450127 -4.99421 19.0593
-0.02 5 30
9.99568 4.99177 20.9142
-0.284237 4.98243 18.8968
-10.0001 -5.00566 20.7698
0.02 -5 30
-10 5 30
-10 -5 30
9.99504 4.99169 9.57699
10.0009 -4.9966 -0.0773707
9.99292 -5.00101 14.9568
-9.98778 4.98529 14.9429
-9.98814 -5.00124 9.15067
10 -5 30
-9.99961 5.00243 -0.0646289
-9.99913 -4.99756 -0.0696615
0.0208723 -4.99708 -0.0735238
10 5 30
0.317513 -4.9967 3.98134
-4.68826 -4.99725 3.98247
-4.98913 -4.99732 -0.0715927
-9.9941 -4.99959 25.3869
-4.98696 -4.99865 25.3869
-4.99 -5 30
5.01 -5 30
0.237655 -4.9987 24.5293
5.22727 -4.99863 24.5281
9.99643 -4.99718 22.4681
5.22008 -4.99884 16.9988
-4.77434 -5.00011 19.9158
9.99556 -5.0025 7.42938
5.3044 -5.00319 11.4865
5.30375 -4.99764 3.97857
5.01087 -4.99684 -0.0754473
0.53168 -5.00033 13.5471
-9.98717 -4.99531 4.54156
-4.68761 -4.9993 8.59856
-9.99192 -5.00561 14.9593
-4.76915 -5.00309 14.1066
9.9952 4.99509 4.75452
9.99511 -0.0030553 4.75362
10.0006 0.00340021 -0.0748544
9.99502 -0.00128577 17.9239
9.99556 -0.00193209 25.46
9.99671 -0.00754974 12.2572
9.9926 4.99432 15.2451
10 0 30
9.99507 4.99504 25.4584
-0.284843 4.99799 4.00474
4.72276 4.99542 4.00276
4.99039 5.00316 -0.0704069
4.98832 4.99406 25.4587
4.99 5 30
-5.01 5 30
-0.152451 4.99305 24.4487
-5.1421 4.99389 24.4463
-9.99712 4.99001 22.4665
-5.13883 4.98738 16.9209
4.85569 4.9912 19.9072
-9.98684 4.99988 7.43543
-5.27196 4.99263 11.5122
-5.27143 4.99934 4.00209
-5.00961 5.00268 -0.0665523
-0.419026 4.99104 13.4885
4.71964 4.99253 8.82712
4.85617 4.99219 14.2381
-9.98757 0.00340702 4.54723
-9.99937 0.00243504 -0.0671452
-9.99395 -0.0111769 17.8496
-9.99383 -0.002658 25.3865
-9.99387 -0.00530742 12.0427
-10 0 30
-5.00937 0.00267585 -0.0690686
0.000631978 0.00291763 -0.0709998
5.01063 0.0031594 -0.0729309
0 0 30
-5.01 0 30
5.01 0 30
5.30245 -0.00136763 3.98264
0.296773 0.00028642 3.98279
0.0269924 -0.0018758 8.05573
0.0833082 -0.00662726 18.9751
0.218295 -0.00232472 24.5288
5.2258 -0.00276923 19.9873
-5.00688 -0.00168972 25.3842
-5.14245 -0.00699013 19.8329
5.00942 -0.0021633 25.461
5.30178 -0.00477413 8.81114
0.159925 -0.00517409 13.4674
-4.77057 -0.00858622 16.9943
-5.26851 0.001861 3.99983
-4.6933 -0.00398476 11.4864
5.22617 -0.00529321 14.3163
-5.27067 -0.00187732 8.61556
0.000631978 0.00291763 -0.0709998
0 0 0
0 0 30
0 0 30

CELLS 47 211
2 98 19
2 98 13
2 98 3
2 98 18
2 98 20
2 98 1
2 100 11
2 100 17
2 100 21
2 100 10
2 100 9
2 100 5
4 0 1 2 3
4 4 5 6 7
4 4 5 7 8
4 4 5 6 9
4 5 8 10 11
4 0 12 13 14
4 0 2 7 12
4 4 8 15 16
4 7 8 10 15
4 4 6 14 17
4 1 2 18 19
4 0 1 2 19
4 4 5 8 9
4 5 8 9 11
4 0 4 15 16
4 5 7 8 10
4 0 4 7 15
4 0 3 12 13
4 0 4 7 12
4 4 7 8 15
4 0 2 15 16
4 4 6 7 12
4 4 6 9 17
4 0 3 13 20
4 0 1 19 20
4 2 16 18 19
4 4 6 12 14
4 0 2 7 15
4 0 2 16 19
4 6 9 17 21
4 0 4 12 14
4 0 2 3 12
4 5 6 9 21
4 2 15 16 18
4 0 1 3 20

CELL_TYPES 47
3
3
3
3
3
3
3
3
3
3
3
3
10
10
10
10
10
10
10
10
10
10
10
10
10
10
10
10
10
10
10
10
10
10
10
10
10
10
10
10
10
10
10
10
10
10
10

POINT_DATA 102
SCALARS NODE_ID int 1
LOOKUP_TABLE default
20
18
22
6
19
16
15
21
10
11
7
2
14
4
12
17
9
3
8
1
13
5
23
24
25
26
27
28
29
30
31
32
33
34
35
36
37
38
39
40
41
42
43
44
45
46
47
48
49
50
51
52
53
54
55
56
57
58
59
60
61
62
63
64
65
66
67
68
69
70
71
72
73
74
75
76
77
78
79
80
81
82
83
84
85
86
87
88
89
90
91
92
93
94
95
96
97
98
99
100
101
102

SCALARS Time_Step float 1
LOOKUP_TABLE default
1.00037e-06
1.47838e+07
1.00036e-06
1.51395e+07
1.00116e-06
2.09559e+07
1.00106e-06
1.001e-06
1.00065e-06
1.77935e+07
1.35445e+07
9.84791e+06
1.00085e-06
1.28134e+07
1.00126e-06
1.00049e-06
1.00052e-06
1.34359e+07
1.27647e+07
1.5174e+07
1.13089e+07
9.76738e+06
1.00031e-06
1.00058e-06
1.00101e-06
1.0007e-06
1.00072e-06
1.00128e-06
1.00141e-06
1.00194e-06
1.00203e-06
1.00214e-06
1.00143e-06
1.00087e-06
1.00106e-06
1.0011e-06
1.00088e-06
1.00134e-06
1.00171e-06
1.00104e-06
1.00073e-06
1.00091e-06
1.00098e-06
1.00046e-06
1.00112e-06
1.00087e-06
1.00144e-06
1.0015e-06
1.00112e-06
1.00147e-06
1.00127e-06
1.00076e-06
1.00045e-06
1.0009e-06
1.00055e-06
1.00097e-06
1.00083e-06
1.00081e-06
1.00168e-06
1.00185e-06
1.00192e-06
1.00085e-06
1.00162e-06
1.00113e-06
1.00071e-06
1.00082e-06
1.00046e-06
1.00105e-06
1.00053e-06
1.00128e-06
1.00121e-06
1.00077e-06
1.00093e-06
1.00109e-06
1.00042e-06
1.00078e-06
1.00043e-06
1.00057e-06
1.00062e-06
1.00081e-06
1.0007e-06
1.00076e-06
1.00047e-06
1.00028e-06
1.00041e-06
1.00099e-06
1.00173e-06
1.00167e-06
1.00085e-06
1.0009e-06
1.00104e-06
1.00081e-06
1.00133e-06
1.0007e-06
1.00049e-06
1.00077e-06
1.00159e-06
1.00097e-06
1.00026e-06
1e+06
1.00069e-06
1e+06

SCALARS Mass_Change float 1
LOOKUP_TABLE default
2.2422
0
2.30027
0
2.01901
0
1.68804
2.04981
2.05601
0
0
0
1.65365
0
1.21511
2.53445
2.3947
0
0
0
0
0
2.31431
2.26565
2.61505
1.57571
1.35447
1.57575
2.23139
2.32331
1.67151
0.876327
1.3781
2.52078
0.804042
1.19955
1.88587
2.06013
2.06006
2.45949
3.57507
0.751165
1.29388
2.27066
1.82733
2.77493
1.23034
1.66369
1.35351
1.36066
1.64855
1.64506
2.48718
1.83623
2.41868
1.95553
1.64466
2.22981
1.67708
1.6695
0.829841
2.71296
1.07589
0.784109
2.84691
1.8988
2.05224
1.20458
1.17278
1.61888
1.8458
2.83722
2.70845
1.64311
2.36837
1.5791
2.50446
2.44585
2.16814
1.88685
1.57571
1.64506
2.28567
2.57106
2.49283
2.50328
1.62474
1.70208
1.65405
2.86202
2.33662
1.75369
1.76339
2.91874
2.45514
3.03041
1.80187
3.07308
2.24947
0
1.76722
0

VECTORS Velocity float
67.5336 587.426 1118.64
-357.689 88.0149 716.006
-453.206 864.593 1631.01
-357.738 731.48 614.644
197.032 967.635 2154.12
0 0 0
448.32 289.423 -654.84
456.92 -297.482 541.093
-937.315 -292.993 -407.373
0 0 0
0 0 0
0 0 0
205.446 -630.663 -404.791
284.733 730.991 1523.92
960.872 906.89 -530.585
281.833 -1116.99 115.182
984.53 1160.15 -55.9131
0 0 0
-357.64 -552.881 816.963
284.831 -553.37 1726.24
284.782 90.0949 1624.88
0 0 0
-5.93215 410.986 1314.69
433.135 337.905 1377.76
284.806 -231.638 1675.56
-108.046 -350.322 -32.7914
-71.8117 153.994 221.586
0 0 0
0 0 0
61.2864 434.688 604.278
406.522 411.319 214.813
777.373 526.203 383.554
391.853 453.899 967.893
-371.101 150.365 1152.86
-977.243 -388.799 994.045
-340.387 223.503 1302.7
-283.504 13.379 1063.08
284.757 410.543 1574.4
198.849 543.916 1573.87
401.124 505.811 836.256
731.225 534.093 931.398
316.251 -791.506 0.236168
601.245 -166.914 999.746
-98.5979 -62.8683 266.277
-453.98 -141.464 984.312
-36.5026 731.236 1069.28
689.273 214.355 407.824
87.7283 450.562 404.249
322.763 150.401 283.188
687.234 39.3902 -180.421
0 0 0
89.9777 598.652 -162.173
-199.887 516.19 1091.96
-188.376 288.373 970.904
-357.714 409.747 665.325
-135.093 387.535 298.657
0 0 0
0 0 0
-254.849 379.932 301.473
-744.171 87.0383 13.9714
-1387.18 -579.49 369.171
-420.176 11.5402 1061.3
455.038 370.225 520.349
258.686 465.086 1119.08
126.541 343.419 1308.48
-198.679 246.254 804.746
-357.665 -232.433 766.485
165.92 433.147 1391.19
65.3935 315.368 876.508
959.433 676.334 739.84
225.748 514.648 1155.41
-36.4049 -553.126 1271.6
-174.888 -758.31 -79.4171
-332.304 -263.159 435.072
-56.3614 -206.534 629.642
0 0 0
-36.4292 -232.678 1221.12
-36.4537 89.0549 1170.44
-36.4782 410.787 1119.76
0 0 0
0 0 0
0 0 0
-250.926 154.628 1131.4
96.2029 608.643 1213.73
-71.2789 826.364 1288.07
95.9148 242.126 693.938
-15.7217 483.989 186.824
615.137 537.025 564.157
-207.045 186.138 172.839
-471.235 40.8499 619.536
129.388 460.116 212.468
-425.295 92.1203 1134.95
101.62 471.929 1122.4
-258.665 -136.251 765.908
239.161 458.856 1149.74
286.043 308.908 1260.68
300.776 401.336 962.384
291.039 428.164 1286.93
-36.4537 89.0549 1170.44
0 0 0
0 0 0
0 0 0

VECTORS Displacement float
0.00691138 0.00241252 -0.0507567
0.000391657 0.00291602 -0.0684758
-0.0063211 -0.00593974 -0.0431324
0.000390901 0.00339957 -0.0723381
-0.00362244 0.00579437 -0.0215098
0 0 0
-0.00431928 -0.0082275 -0.0257527
0.00355141 -0.0175687 -0.0260814
-0.000103279 -0.00566419 -0.0201752
0 0 0
0 0 0
0 0 0
-0.00496389 -0.00831058 -0.0530074
0.000871546 0.00340085 -0.0773707
-0.00707713 -0.00100797 -0.013207
0.012224 -0.0147106 -0.0271248
0.0118572 -0.00123787 -0.0593332
0 0 0
0.00039241 0.0024344 -0.0646289
0.000873056 0.00243568 -0.0696615
0.000872299 0.00291923 -0.0735238
0 0 0
0.00440036 0.00329781 -0.064444
0.00863156 0.00274946 -0.0633161
0.000872678 0.00267746 -0.0715927
0.00589807 0.000406138 -0.0081173
0.00304169 0.00134521 -0.00809388
0 0 0
0 0 0
0.000779979 0.00129701 -0.0110669
0.00039681 0.00136833 -0.0123166
-0.00357284 0.00281536 -0.0168833
-0.00679972 0.00115526 -0.0266249
-0.00121396 -0.000113034 -0.0196028
-0.00443722 -0.00250195 -0.0556206
0.00129197 -0.00318834 -0.0442782
0.000635081 0.00235668 -0.0672228
0.000871923 0.00316004 -0.0754473
0.00169261 -0.000326746 -0.0390604
0.0128256 0.00469079 -0.0634406
0.00927829 0.000700939 -0.0522258
0.00808347 -0.00561424 -0.0407113
0.00397821 -0.00309229 -0.0387899
-0.00479613 -0.00490617 -0.0604826
-0.00488913 -0.0030553 -0.0613839
0.000631224 0.00340021 -0.0748544
-0.00498526 -0.00128577 -0.0311098
-0.00443742 -0.00193209 -0.0100396
-0.00329384 -0.00754974 -0.0427669
-0.00740259 -0.0056839 -0.0398607
0 0 0
-0.00492536 -0.00495506 -0.0116112
0.00232348 -0.00200902 -0.0572305
-6.83501e-05 -0.00457913 -0.0592154
0.000391279 0.0031578 -0.0704069
-0.00167627 -0.00593877 -0.0113039
0 0 0
0 0 0
0.00144343 -0.00695237 -0.0126831
0.00179602 -0.00610902 -0.0151691
0.00288247 -0.00999483 -0.0185295
0.00506196 -0.0126168 -0.0255588
-0.000417896 -0.00880182 -0.0241961
0.013161 -0.000115813 -0.0495731
0.00520406 -0.00736907 -0.0347987
0.00574137 -0.000663007 -0.0598832
0.000392034 0.00267521 -0.0665523
0.00203486 -0.00896101 -0.0349085
-0.00319601 -0.00747404 -0.0498532
6.79988e-05 -0.00781303 -0.0383656
0.012427 0.00340702 -0.0577721
0.000632733 0.00243504 -0.0671452
0.00604792 -0.0111769 -0.0304273
0.00616835 -0.002658 -0.00853708
0.00612843 -0.00530742 -0.0473107
0 0 0
0.000632356 0.00267585 -0.0690686
0.000631978 0.00291763 -0.0709998
0.0006316 0.0031594 -0.0729309
0 0 0
0 0 0
0 0 0
-0.000662105 -0.00136763 -0.0631498
0.00366084 0.00028642 -0.0629955
0.00104663 -0.0018758 -0.0520324
0.000327612 -0.00662726 -0.0267106
0.00142057 -0.00232472 -0.01156
-0.00107397 -0.00276923 -0.0231079
0.00312143 -0.00168972 -0.0108149
0.00144332 -0.00699013 -0.0235507
-0.000575444 -0.0021633 -0.00903792
-0.00133399 -0.00477413 -0.0496458
0.000706479 -0.00517409 -0.0398193
0.00255225 -0.00858622 -0.0311083
0.00865612 0.001861 -0.0621403
0.00358775 -0.00398476 -0.0443554
-0.000699624 -0.00529321 -0.0390437
0.00649592 -0.00187732 -0.0514085
0.000631978 0.00291763 -0.0709998
0 0 0
0 0 0
0 0 0

VECTORS Acceleration float
-1.23924e+08 -3.95543e+06 3.78793e+07
7.546e+06 -8.13758e+07 5.3541e+07
1.36684e+08 -3.23677e+07 -1.88048e+08
7.54174e+06 -9.02658e+07 1.48441e+08
7.73415e+07 -7.76254e+07 -3.77132e+06
0 0 0
-4.47059e+07 6.99209e+07 1.20197e+08
-5.08983e+07 2.94051e+08 4.4136e+07
1.50376e+08 1.31993e+08 -284423
0 0 0
0 0 0
0 0 0
-5.45732e+07 1.10714e+08 1.99663e+08
-1.26091e+06 -9.01558e+07 1.79966e+08
1.14577e+07 4.23069e+07 -5.31771e+08
-7.51066e+07 2.36714e+08 -5.77594e+07
-1.55239e+08 5.29521e+07 2.6561e+08
0 0 0
7.55024e+06 -7.25212e+07 -4.09799e+07
-1.2524e+06 -7.24112e+07 -9.45438e+06
-1.25666e+06 -8.13012e+07 8.54454e+07
0 0 0
-4.38839e+06 2.63835e+07 3.27567e+07
-7.18915e+07 1.40615e+07 5.65417e+07
2.28164e+08 1.74254e+08 8.04694e+08
-9.61051e+07 -9.05441e+06 -3.51107e+07
-9.53869e+07 -3.26689e+07 -2.02224e+07
1.65241e+08 3.1595e+08 -1.08663e+09
5.00598e+07 3.70827e+07 -4.32988e+08
-4.96499e+07 5.95199e+07 4.63992e+07
-8.56989e+07 5.26326e+07 4.23342e+07
-4.0935e+07 -6.20805e+07 2.82052e+08
4.80997e+07 3.17173e+07 2.29434e+08
-1.77542e+06 7.37641e+06 -4.23334e+07
-2.13789e+07 1.44324e+08 2.95733e+08
-5.4273e+07 1.04516e+08 3.08974e+08
4.02442e+07 1.86902e+07 5.38445e+07
-1.76031e+08 2.08982e+08 1.05786e+09
-1.58952e+07 9.07527e+07 7.27337e+07
-9.98099e+07 -9.9492e+07 -1.49767e+07
-3.293e+06 1.11957e+07 -1.01712e+08
1.59534e+06 5.69547e+07 3.15513e+07
4.23852e+07 1.1107e+08 -7.98176e+07
1.20201e+07 1.3411e+07 -7.49336e+07
4.31464e+07 4.21511e+07 -8.04634e+07
-1.33811e+08 -2.95333e+07 5.95837e+08
-1.01064e+07 -9.12883e+07 3.12617e+08
4.18369e+07 -1.36356e+07 -3.41895e+07
-4.39712e+07 6.63872e+07 2.3374e+08
5.49656e+07 -9.50831e+07 2.00257e+07
-3.6229e+08 -7.90697e+06 -1.16935e+09
4.72488e+07 4.65467e+06 -2.21129e+07
-1.25827e+08 -2.35377e+07 3.08536e+07
-1.06542e+08 8.00307e+07 2.94799e+07
-1.46371e+07 -1.46585e+08 5.85331e+08
1.8777e+07 2.85023e+07 -1.10958e+07
-3.43502e+07 -4.28393e+08 -1.31757e+09
-2.53662e+07 -7.70108e+07 -5.57205e+08
1.00534e+07 -8.45005e+07 -6.70719e+06
4.44876e+07 -8.00824e+07 6.64166e+07
1.2352e+08 1.93656e+07 4.66567e+07
7.708e+07 -7.6379e+07 -6.6493e+07
1.82672e+06 -9.60545e+07 -3.67502e+07
-1.28174e+08 -1.91748e+08 5.35629e+07
-6.09255e+07 -4.76597e+07 -3.88391e+07
-1.6171e+08 -3.10029e+07 1.40302e+08
4.90948e+08 -2.02326e+08 6.9649e+08
-7.12952e+07 -5.29061e+07 6.30288e+06
-4.59632e+07 1.61271e+07 3.09126e+07
-2.71918e+07 -1.46234e+08 -4.31885e+07
-8.96031e+07 -9.68714e+07 -1.14044e+08
9.78119e+07 2.90519e+07 5.67944e+08
-2.74478e+06 2.0907e+07 1.25228e+08
-9.21988e+07 -1.33289e+06 -6.5447e+07
1.35746e+08 -7.25055e+07 1.00124e+08
5.28073e+08 -6.09061e+07 -1.32648e+09
2.10181e+08 4.78909e+07 3.22107e+08
1.0548e+08 -7.83101e+07 8.08447e+08
-8.50637e+07 -7.85055e+07 9.9459e+08
4.47597e+06 -3.52988e+06 -3.84759e+08
2.24951e+08 6.64243e+06 -1.10242e+09
-3.60677e+07 -4.92737e+07 -9.81472e+08
4.55303e+07 3.75111e+07 -2.09762e+07
-1.63513e+07 7.02594e+06 1.00136e+07
-9.66331e+06 286366 1.13271e+08
-2.08633e+07 1.78109e+07 5.49967e+07
-6.40646e+07 7.10836e+07 2.05366e+07
-5.6762e+07 2.50337e+07 -2.6804e+07
-9.52054e+07 -1.82811e+07 5.66045e+07
1.1403e+07 -9.359e+07 8.34567e+06
6.66246e+06 1.67106e+06 -5.84674e+07
6.19431e+07 3.94944e+07 -7.96247e+07
6.66028e+07 -7.89179e+07 1.64902e+07
2.82579e+07 8.35538e+07 7.38558e+07
-2.20456e+08 -2.37371e+07 1.47443e+08
9.16085e+07 -7.17705e+07 4.93973e+07
-7.33744e+07 6.20993e+07 -2.44891e+06
-6.64378e+07 -3.88433e+06 1.78016e+07
3.14467e+06 -8.13385e+07 6.94932e+07
0 0 0
0 0 0
0 0 0

VECTORS Contact_Forces float
0 0 0
0 0 0
0 0 0
0 0 0
0 0 0
0 0 0
0 0 0
0 0 0
0 0 0
0 0 0
0 0 0
0 0 0
0 0 0
0 0 0
0 0 0
0 0 0
0 0 0
0 0 0
0 0 0
0 0 0
0 0 0
0 0 0
0 0 0
0 0 0
0 0 0
0 0 0
0 0 0
0 0 0
0 0 0
0 0 0
0 0 0
0 0 0
0 0 0
0 0 0
0 0 0
0 0 0
0 0 0
0 0 0
0 0 0
0 0 0
0 0 0
0 0 0
0 0 0
0 0 0
0 0 0
0 0 0
0 0 0
0 0 0
0 0 0
0 0 0
0 0 0
0 0 0
0 0 0
0 0 0
0 0 0
0 0 0
0 0 0
0 0 0
0 0 0
0 0 0
0 0 0
0 0 0
0 0 0
0 0 0
0 0 0
0 0 0
0 0 0
0 0 0
0 0 0
0 0 0
0 0 0
0 0 0
0 0 0
0 0 0
0 0 0
0 0 0
0 0 0
0 0 0
0 0 0
0 0 0
0 0 0
0 0 0
0 0 0
0 0 0
0 0 0
0 0 0
0 0 0
0 0 0
0 0 0
0 0 0
0 0 0
0 0 0
0 0 0
0 0 0
0 0 0
0 0 0
0 0 0
0 0 0
0 0 0
0 0 0
0 0 0
0 0 0

VECTORS Contact_Pressure_/_Normal float
0 0 0
0 0 0
0 0 0
0 0 0
0 0 0
0 0 0
0 0 0
0 0 0
0 0 0
0 0 0
0 0 0
0 0 0
0 0 0
0 0 0
0 0 0
0 0 0
0 0 0
0 0 0
0 0 0
0 0 0
0 0 0
0 0 0
0 0 0
0 0 0
0 0 0
0 0 0
0 0 0
0 0 0
0 0 0
0 0 0
0 0 0
0 0 0
0 0 0
0 0 0
0 0 0
0 0 0
0 0 0
0 0 0
0 0 0
0 0 0
0 0 0
0 0 0
0 0 0
0 0 0
0 0 0
0 0 0
0 0 0
0 0 0
0 0 0
0 0 0
0 0 0
0 0 0
0 0 0
0 0 0
0 0 0
0 0 0
0 0 0
0 0 0
0 0 0
0 0 0
0 0 0
0 0 0
0 0 0
0 0 0
0 0 0
0 0 0
0 0 0
0 0 0
0 0 0
0 0 0
0 0 0
0 0 0
0 0 0
0 0 0
0 0 0
0 0 0
0 0 0
0 0 0
0 0 0
0 0 0
0 0 0
0 0 0
0 0 0
0 0 0
0 0 0
0 0 0
0 0 0
0 0 0
0 0 0
0 0 0
0 0 0
0 0 0
0 0 0
0 0 0
0 0 0
0 0 0
0 0 0
0 0 0
0 0 0
0 0 0
0 0 0
0 0 0

VECTORS Contact_Pressure_/_Tangent float
0 0 0
0 0 0
0 0 0
0 0 0
0 0 0
0 0 0
0 0 0
0 0 0
0 0 0
0 0 0
0 0 0
0 0 0
0 0 0
0 0 0
0 0 0
0 0 0
0 0 0
0 0 0
0 0 0
0 0 0
0 0 0
0 0 0
0 0 0
0 0 0
0 0 0
0 0 0
0 0 0
0 0 0
0 0 0
0 0 0
0 0 0
0 0 0
0 0 0
0 0 0
0 0 0
0 0 0
0 0 0
0 0 0
0 0 0
0 0 0
0 0 0
0 0 0
0 0 0
0 0 0
0 0 0
0 0 0
0 0 0
0 0 0
0 0 0
0 0 0
0 0 0
0 0 0
0 0 0
0 0 0
0 0 0
0 0 0
0 0 0
0 0 0
0 0 0
0 0 0
0 0 0
0 0 0
0 0 0
0 0 0
0 0 0
0 0 0
0 0 0
0 0 0
0 0 0
0 0 0
0 0 0
0 0 0
0 0 0
0 0 0
0 0 0
0 0 0
0 0 0
0 0 0
0 0 0
0 0 0
0 0 0
0 0 0
0 0 0
0 0 0
0 0 0
0 0 0
0 0 0
0 0 0
0 0 0
0 0 0
0 0 0
0 0 0
0 0 0
0 0 0
0 0 0
0 0 0
0 0 0
0 0 0
0 0 0
0 0 0
0 0 0
0 0 0

VECTORS Tied_Contact_Forces float
0 0 0
0 0 0
0 0 0
0 0 0
0 0 0
0 0 0
0 0 0
0 0 0
0 0 0
0 0 0
0 0 0
0 0 0
0 0 0
0 0 0
0 0 0
0 0 0
0 0 0
0 0 0
0 0 0
0 0 0
0 0 0
0 0 0
0 0 0
0 0 0
0 0 0
0 0 0
0 0 0
0 0 0
0 0 0
0 0 0
0 0 0
0 0 0
0 0 0
0 0 0
0 0 0
0 0 0
0 0 0
0 0 0
0 0 0
0 0 0
0 0 0
0 0 0
0 0 0
0 0 0
0 0 0
0 0 0
0 0 0
0 0 0
0 0 0
0 0 0
0 0 0
0 0 0
0 0 0
0 0 0
0 0 0
0 0 0
0 0 0
0 0 0
0 0 0
0 0 0
0 0 0
0 0 0
0 0 0
0 0 0
0 0 0
0 0 0
0 0 0
0 0 0
0 0 0
0 0 0
0 0 0
0 0 0
0 0 0
0 0 0
0 0 0
0 0 0
0 0 0
0 0 0
0 0 0
0 0 0
0 0 0
0 0 0
0 0 0
0 0 0
0 0 0
0 0 0
0 0 0
0 0 0
0 0 0
0 0 0
0 0 0
0 0 0
0 0 0
0 0 0
0 0 0
0 0 0
0 0 0
0 0 0
0 0 0
0 0 0
0 0 0
0 0 0

CELL_DATA 47
SCALARS ELEMENT_ID int 1
LOOKUP_TABLE default
0
0
0
0
0
0
0
0
0
0
0
0
1
2
3
4
5
6
7
8
9
10
11
12
13
14
15
16
17
18
19
20
21
22
23
24
25
26
27
28
29
30
31
32
33
34
35

SCALARS PART_ID int 1
LOOKUP_TABLE default
36
36
36
36
36
36
37
37
37
37
37
37
1
1
1
1
1
1
1
1
1
1
1
1
1
1
1
1
1
1
1
1
1
1
1
1
1
1
1
1
1
1
1
1
1
1
1

SCALARS EROSION_STATUS int 1
LOOKUP_TABLE default
1
1
1
1
1
1
1
1
1
1
1
1
1
1
1
1
1
1
1
1
1
1
1
1
1
1
1
1
1
1
1
1
1
1
1
1
1
1
1
1
1
1
1
1
1
1
1

SCALARS 1DELEM_Plastic_Strain float 1
LOOKUP_TABLE default
0
0
0
0
0
0
0
0
0
0
0
0
0
0
0
0
0
0
0
0
0
0
0
0
0
0
0
0
0
0
0
0
0
0
0
0
0
0
0
0
0
0
0
0
0
0
0

SCALARS 1DELEM_Specific_Energy float 1
LOOKUP_TABLE default
0
0
0
0
0
0
0
0
0
0
0
0
0
0
0
0
0
0
0
0
0
0
0
0
0
0
0
0
0
0
0
0
0
0
0
0
0
0
0
0
0
0
0
0
0
0
0

SCALARS 1DELEM_Von_Mises float 1
LOOKUP_TABLE default
0
0
0
0
0
0
0
0
0
0
0
0
0
0
0
0
0
0
0
0
0
0
0
0
0
0
0
0
0
0
0
0
0
0
0
0
0
0
0
0
0
0
0
0
0
0
0

SCALARS 3DELEM_Plastic_Strain float 1
LOOKUP_TABLE default
0
0
0
0
0
0
0
0
0
0
0
0
0
0
0
0
0
0
0
0
0
0
0
0
0
0
0
0
0
0
0
0
0
0
0
0
0
0
0
0
0
0
0
0
0
0
0

SCALARS 3DELEM_Specific_Energy float 1
LOOKUP_TABLE default
0
0
0
0
0
0
0
0
0
0
0
0
1.55098e+08
1.34198e+08
1.4144e+08
1.08475e+08
1.37169e+08
1.79174e+08
1.07763e+08
1.97189e+08
1.27189e+08
1.51679e+08
1.01952e+08
1.23854e+08
1.0843e+08
1.19607e+08
1.51315e+08
1.37273e+08
1.49167e+08
1.54427e+08
1.20399e+08
2.03759e+08
1.44755e+08
1.5338e+08
1.29857e+08
1.22296e+08
1.0441e+08
1.38391e+08
1.38791e+08
1.31073e+08
1.59273e+08
1.18634e+08
1.55515e+08
1.34299e+08
1.21656e+08
1.41249e+08
1.04129e+08

SCALARS 3DELEM_Von_Mises float 1
LOOKUP_TABLE default
0
0
0
0
0
0
0
0
0
0
0
0
563.519
548.564
546.209
480.959
436.432
580.794
455.42
658.846
479.035
514.779
408.335
479.879
432.505
397.811
496.925
509.194
510.728
586.576
443.165
599.536
512.323
582.321
489.846
442.156
420.988
465.674
525.473
449.088
512.474
409.087
531.25
503.548
437.069
517.16
430.039

TENSORS 3DELEM_Stress float
0 0 0 
0 0 0 
0 0 0 
0 0 0 
0 0 0 
0 0 0 
0 0 0 
0 0 0 
0 0 0 
0 0 0 
0 0 0 
0 0 0 
0 0 0 
0 0 0 
0 0 0 
0 0 0 
0 0 0 
0 0 0 
0 0 0 
0 0 0 
0 0 0 
0 0 0 
0 0 0 
0 0 0 
0 0 0 
0 0 0 
0 0 0 
0 0 0 
0 0 0 
0 0 0 
0 0 0 
0 0 0 
0 0 0 
0 0 0 
0 0 0 
0 0 0 
40.7962 -46.9556 -25.7272
-46.9556 53.1207 -52.1614
-25.7272 -52.1614 595.299
38.5518 31.5178 37.5385
31.5178 -58.5355 -1.37651
37.5385 -1.37651 525.396
83.4002 30.4284 32.9508
30.4284 -64.4361 24.0753
32.9508 24.0753 533.103
61.2031 -5.41333 -0.587026
-5.41333 4.93374 -2.46528
-0.587026 -2.46528 511.44
105.219 10.1832 35.3081
10.1832 104.987 -101.432
35.3081 -101.432 499.509
-0.996552 -45.0337 -24.7148
-45.0337 46.1273 6.86872
-24.7148 6.86872 594.927
39.5301 -18.4594 6.57321
-18.4594 5.16384 -10.9381
6.57321 -10.9381 475.128
9.04876 29.9131 -20.2536
29.9131 -17.3058 13.9955
-20.2536 13.9955 650.895
14.8649 27.5738 86.1973
27.5738 -20.1654 -2.46539
86.1973 -2.46539 448.975
-5.49331 38.8771 -32.6941
38.8771 -45.9272 17.5898
-32.6941 17.5898 479.366
57.0003 -35.0376 -3.4407
-35.0376 71.5846 139.156
-3.4407 139.156 387.969
-48.1861 -42.7453 23.1893
-42.7453 41.1788 37.7983
23.1893 37.7983 457.922
59.7947 5.09689 2.08392
5.09689 6.16271 19.3575
2.08392 19.3575 461.568
105.979 8.26939 -19.191
8.26939 102.986 -54.7024
-19.191 -54.7024 489.138
54.7431 -5.7288 -49.8317
-5.7288 44.2405 -6.16109
-49.8317 -6.16109 538.562
99.0179 -21.5107 51.8063
-21.5107 41.4795 1.53365
51.8063 1.53365 567.59
32.351 34.2151 -2.87908
34.2151 -33.8233 -15.6737
-2.87908 -15.6737 502.538
20.4516 -25.5611 -43.3763
-25.5611 59.4391 -59.5764
-43.3763 -59.5764 609.751
72.107 -2.91423 -13.8264
-2.91423 -3.11138 -15.4398
-13.8264 -15.4398 471.348
30.6429 70.09 67.4334
70.09 -57.5002 -31.9616
67.4334 -31.9616 554.173
-40.457 -13.5635 27.5673
-13.5635 1.13208 -30.9364
27.5673 -30.9364 485.782
-34.9746 52.0344 9.30737
52.0344 -29.1112 -32.1974
9.30737 -32.1974 540.303
64.5355 -14.8656 10.59
-14.8656 20.6974 -19.0872
10.59 -19.0872 528.842
95.405 -18.3654 0.285485
-18.3654 96.2415 -51.843
0.285485 -51.843 527.594
67.4766 -1.74718 6.00184
-1.74718 87.2883 86.9175
6.00184 86.9175 470.009
6.10086 -56.8822 40.2694
-56.8822 54.7581 30.651
40.2694 30.651 475.049
-19.6008 43.0841 -2.8767
43.0841 -4.72046 -29.539
-2.8767 -29.539 505.28
-30.0284 21.3242 49.5263
21.3242 -46.3664 -31.5732
49.5263 -31.5732 397.424
-40.7061 -51.8215 -33.9806
-51.8215 50.0239 3.08154
-33.9806 3.08154 499.539
84.1461 -2.08932 24.2301
-2.08932 98.0371 37.1839
24.2301 37.1839 492.695
39.9136 -33.4526 -4.91972
-33.4526 38.1174 -42.4167
-4.91972 -42.4167 561.889
17.7116 -33.5529 -26.047
-33.5529 18.3282 -51.4536
-26.047 -51.4536 508.127
107.708 -1.07036 54.8299
-1.07036 99.064 17.8829
54.8299 17.8829 528.817
-73.8547 -19.1124 6.5532
-19.1124 52.5319 -21.4757
6.5532 -21.4757 492.196
83.4359 -19.7629 -39.2969
-19.7629 104.765 3.11815
-39.2969 3.11815 516.899

