# vtk DataFile Version 3.0
vtk output
ASCII
DATASET UNSTRUCTURED_GRID
FIELD FieldData 2
TIME 1 1 double
0.00800005
CYCLE 1 1 int
0
POINTS 102 float
0.607613 -4.99283 8.03481
-0.0177436 4.99844 -0.0816514
-0.549989 4.98808 8.05463
10.0023 4.99167 -0.0879965
0.468218 -4.99556 19.0521
-0.02 5 30
9.99139 4.99523 20.9258
-0.282915 4.99604 18.8908
-9.99318 -5.00159 20.7659
0.02 -5 30
-10 5 30
-10 -5 30
9.99778 5.00734 9.57848
9.9955 -5.00832 -0.0874623
10.0017 -4.98854 14.9048
-9.99538 5.00194 14.9346
-9.98759 -4.99687 9.16715
10 -5 30
-9.99774 5.00517 -0.0753317
-10.0045 -4.99483 -0.0747974
0.0155085 -5.00159 -0.0811425
10 5 30
0.314374 -4.99838 3.97584
-4.69645 -4.99751 3.97569
-4.99449 -4.99821 -0.07797
-9.99149 -4.99557 25.3837
-4.98462 -4.99465 25.3828
-4.99 -5 30
5.01 -5 30
0.24122 -4.9947 24.5272
5.22547 -4.99518 24.5255
9.99432 -4.99627 22.4616
5.23342 -4.99541 16.983
-4.76205 -4.99514 19.9077
10.0015 -4.98703 7.4189
5.30346 -4.99123 11.4752
5.30296 -4.99594 3.97467
5.00551 -5.00496 -0.0843024
0.534193 -4.99203 13.5419
-9.99448 -4.9994 4.54474
-4.69136 -4.99581 8.59339
-9.98622 -4.99642 14.963
-4.76192 -4.99516 14.1016
9.99865 4.99971 4.74336
9.99898 0.00248008 4.74026
9.99888 -0.00832553 -0.0877294
9.99529 0.000767531 17.9213
9.99576 -0.00107656 25.4586
9.99335 0.00994115 12.2494
9.99667 4.9976 15.2501
10 0 30
9.99553 4.99529 25.4629
-0.283726 4.99324 3.98617
4.7255 4.99698 3.98398
4.99225 4.99505 -0.084824
4.98861 4.99686 25.4596
4.99 5 30
-5.01 5 30
-0.151043 4.9975 24.4461
-5.13719 4.99729 24.4458
-9.98765 4.99567 22.4624
-5.13773 4.99883 16.9097
4.85483 4.9973 19.9034
-9.99477 4.99371 7.42471
-5.27382 4.99822 11.4934
-5.27253 4.99682 3.99281
-5.00774 5.0018 -0.0784915
-0.418221 4.99893 13.4735
4.72362 4.99875 8.81413
4.85357 4.99781 14.2317
-9.99582 -0.00192338 4.5386
-10.0011 0.00517088 -0.0750646
-9.98631 -0.00152608 17.8484
-9.9905 0.000461037 25.3814
-9.98729 0.00193241 12.047
-10 0 30
-5.01112 0.00180353 -0.0782244
-0.00111751 -0.00157732 -0.081397
5.00888 -0.00495817 -0.0845695
0 0 30
-5.01 0 30
5.01 0 30
5.30417 0.000620047 3.96894
0.294851 -0.0027327 3.97216
0.029645 -0.00118525 8.0449
0.0896386 0.000377855 18.9704
0.219343 0.00158148 24.5255
5.22671 0.00146371 19.9807
-5.00458 0.00100358 25.3823
-5.13375 0.000378091 19.8272
5.00909 0.00111843 25.4575
5.3056 0.00522669 8.79629
0.162054 0.00377811 13.4587
-4.76349 0.00153638 16.988
-5.27503 -0.000967381 3.99105
-4.6899 0.00176914 11.4777
5.22421 0.00286545 14.3086
-5.27214 0.000849222 8.60691
-0.00111751 -0.00157732 -0.081397
0 0 0
0 0 30
0 0 30

CELLS 47 211
2 98 19
2 98 13
2 98 3
2 98 18
2 98 20
2 98 1
2 100 11
2 100 17
2 100 21
2 100 10
2 100 9
2 100 5
4 0 1 2 3
4 4 5 6 7
4 4 5 7 8
4 4 5 6 9
4 5 8 10 11
4 0 12 13 14
4 0 2 7 12
4 4 8 15 16
4 7 8 10 15
4 4 6 14 17
4 1 2 18 19
4 0 1 2 19
4 4 5 8 9
4 5 8 9 11
4 0 4 15 16
4 5 7 8 10
4 0 4 7 15
4 0 3 12 13
4 0 4 7 12
4 4 7 8 15
4 0 2 15 16
4 4 6 7 12
4 4 6 9 17
4 0 3 13 20
4 0 1 19 20
4 2 16 18 19
4 4 6 12 14
4 0 2 7 15
4 0 2 16 19
4 6 9 17 21
4 0 4 12 14
4 0 2 3 12
4 5 6 9 21
4 2 15 16 18
4 0 1 3 20

CELL_TYPES 47
3
3
3
3
3
3
3
3
3
3
3
3
10
10
10
10
10
10
10
10
10
10
10
10
10
10
10
10
10
10
10
10
10
10
10
10
10
10
10
10
10
10
10
10
10
10
10

POINT_DATA 102
SCALARS NODE_ID int 1
LOOKUP_TABLE default
20
18
22
6
19
16
15
21
10
11
7
2
14
4
12
17
9
3
8
1
13
5
23
24
25
26
27
28
29
30
31
32
33
34
35
36
37
38
39
40
41
42
43
44
45
46
47
48
49
50
51
52
53
54
55
56
57
58
59
60
61
62
63
64
65
66
67
68
69
70
71
72
73
74
75
76
77
78
79
80
81
82
83
84
85
86
87
88
89
90
91
92
93
94
95
96
97
98
99
100
101
102

SCALARS Time_Step float 1
LOOKUP_TABLE default
1.00037e-06
1.47838e+07
1.00039e-06
1.51395e+07
1.00089e-06
2.09559e+07
1.00083e-06
1.00056e-06
1.00047e-06
1.77935e+07
1.35445e+07
9.84791e+06
1.00073e-06
1.28134e+07
1.00117e-06
1.00032e-06
1.0006e-06
1.34359e+07
1.27647e+07
1.5174e+07
1.13089e+07
9.76738e+06
1.00043e-06
1.00057e-06
1.00091e-06
1.00099e-06
1.00065e-06
1.00154e-06
1.00122e-06
1.00158e-06
1.00159e-06
1.00139e-06
1.00129e-06
1.0006e-06
1.00113e-06
1.00126e-06
1.00094e-06
1.00153e-06
1.00152e-06
1.00074e-06
1.00083e-06
1.0017e-06
1.00155e-06
1.00056e-06
1.00113e-06
1.00093e-06
1.0011e-06
1.00114e-06
1.00124e-06
1.00138e-06
1.00117e-06
1.0008e-06
1.00091e-06
1.00141e-06
1.00105e-06
1.00077e-06
1.00102e-06
1.00078e-06
1.00148e-06
1.00152e-06
1.00145e-06
1.00029e-06
1.00145e-06
1.00098e-06
1.00065e-06
1.00077e-06
1.00082e-06
1.00055e-06
1.00045e-06
1.00079e-06
1.00101e-06
1.00077e-06
1.00064e-06
1.00093e-06
1.00066e-06
1.00111e-06
1.00063e-06
1.00067e-06
1.00088e-06
1.00064e-06
1.00099e-06
1.0008e-06
1.00074e-06
1.00059e-06
1.00047e-06
1.00053e-06
1.0014e-06
1.00137e-06
1.00076e-06
1.00049e-06
1.00082e-06
1.00069e-06
1.00074e-06
1.0005e-06
1.0005e-06
1.0007e-06
1.0014e-06
1.00088e-06
1.00039e-06
1e+06
1.00057e-06
1e+06

SCALARS Mass_Change float 1
LOOKUP_TABLE default
2.2422
0
2.30027
0
2.01901
0
1.68804
2.04981
2.05601
0
0
0
1.65365
0
1.21511
2.53445
2.3947
0
0
0
0
0
2.31431
2.26565
2.61505
1.57571
1.35447
1.57575
2.23139
2.32331
1.67151
0.876327
1.3781
2.52078
0.804042
1.19955
1.88587
2.06013
2.06006
2.45949
3.57507
0.751165
1.29388
2.27066
1.82733
2.77493
1.23034
1.66369
1.35351
1.36066
1.64855
1.64506
2.48718
1.83623
2.41868
1.95553
1.64466
2.22981
1.67708
1.6695
0.829841
2.71296
1.07589
0.784109
2.84691
1.8988
2.05224
1.20458
1.17278
1.61888
1.8458
2.83722
2.70845
1.64311
2.36837
1.5791
2.50446
2.44585
2.16814
1.88685
1.57571
1.64506
2.28567
2.57106
2.49283
2.50328
1.62474
1.70208
1.65405
2.86202
2.33662
1.75369
1.76339
2.91874
2.45514
3.03041
1.80187
3.07308
2.24947
0
1.76722
0

VECTORS Velocity float
-190.144 282.849 625.197
-209.813 121.784 -530.045
426.431 -192.304 -187.697
-210.517 -503.109 -1026.5
179.285 358.103 -745.6
0 0 0
-526.058 185.518 549.127
963.128 287.085 97.9549
-1234.96 -852.385 -155.96
0 0 0
0 0 0
0 0 0
685.446 712.117 -1751.5
-833.962 -502.696 -727.84
-177.124 472.519 1286.4
-214.026 -627.805 -1358.41
109.212 321.786 -527.671
0 0 0
-209.112 744.182 -35.5741
-832.557 744.595 263.085
-833.261 119.702 -233.369
0 0 0
-358.155 142.021 36.5864
-403.621 459.676 -311.189
-832.909 432.149 14.858
-71.7103 -242.677 210.601
-11.2221 11.9852 109.628
0 0 0
0 0 0
17.4838 134.385 -413.547
-70.1994 299.673 -334.419
-192.351 486.208 -294.654
-238.289 212.638 -253.739
35.0559 9.72939 416.104
99.4118 303.685 -498.681
339.117 240.951 -448.148
-469.461 199.468 -372.432
-833.612 -191.497 -480.604
-5.13253 61.9943 -301.909
-496.36 596.213 -201.112
-49.8595 357.476 -397.267
650.48 -1021.04 -98.7808
525.744 -449.925 -297.582
-327.214 232.728 -1105.96
-339.023 83.2237 -860.946
-522.24 -502.902 -877.169
-259.154 665.005 -310.88
-35.5447 151.016 -87.4878
-46.6986 419.06 -394.42
-278.229 218.203 -538.935
0 0 0
-442.411 213.834 126.315
-35.2113 146.065 -448.855
-281.804 90.8079 -753.038
-210.165 -190.662 -778.272
-534.366 -25.62 -79.9723
0 0 0
0 0 0
-746.179 -7.26591 -10.3838
-1119.09 -551.016 -670.508
-1752.91 -1467.11 -555.408
-413.323 205.975 356.236
34.6132 317.032 27.4276
-434.915 -114.975 176.287
-215.574 138.395 -409.269
-122.399 244.472 -6.86991
-209.462 432.983 -282.81
-286.692 145.486 28.9199
-16.3874 148.572 -517.879
81.3368 191.245 -487.089
-475.545 580.378 -95.3356
-520.834 744.389 113.755
-71.669 -1164.79 -1107.68
-308.668 -511.825 161.762
306.497 -775.255 -254.929
0 0 0
-521.185 433.19 -133.48
-521.537 120.743 -381.707
-521.889 -191.703 -629.934
0 0 0
0 0 0
0 0 0
-366.19 97.6433 -570.358
-288.676 115.271 -335.333
10.0585 39.7911 -79.6104
189.88 157.536 -522.988
-175.958 129.72 -207.681
-115.924 398.714 -186.63
-315.365 -243.887 -391.703
-284.901 -258.354 -146.348
-121.708 126.283 -94.938
32.1575 273.454 -452.422
-215.503 304.179 -252.582
-9.08043 -71.1801 -35.5498
-336.039 450.707 -277.351
49.2587 -48.4227 -165.555
-88.4685 323.094 -542.057
-23.1387 141.095 -237.92
-521.537 120.743 -381.707
0 0 0
0 0 0
0 0 0

VECTORS Displacement float
0.00138791 0.00717328 -0.0567615
0.00225643 -0.00156497 -0.0816514
0.00434422 -0.0119179 -0.0693098
0.00225214 -0.00832667 -0.0879965
0.0144689 0.00444356 -0.0286692
0 0 0
-0.00861444 -0.00476594 -0.0141561
0.00487285 -0.00396287 -0.0320154
0.00682458 -0.00158804 -0.0241026
0 0 0
0 0 0
0 0 0
-0.00222427 0.00733867 -0.0515233
-0.00449573 -0.00832438 -0.0874623
0.00171521 0.0114604 -0.0651603
0.00462092 0.00194025 -0.0353822
0.012405 0.003126 -0.0428505
0 0 0
0.00226071 0.00516974 -0.0753317
-0.00448716 0.00517203 -0.0747974
-0.00449145 -0.00158967 -0.0811425
0 0 0
0.00126202 0.00161705 -0.069944
0.000437144 0.00248739 -0.0700997
-0.00448931 0.00179118 -0.07797
0.00851258 0.00443361 -0.011327
0.00537822 0.00534969 -0.012169
0 0 0
0 0 0
0.00434508 0.0052966 -0.0131769
-0.00140217 0.0048214 -0.0149372
-0.0056791 0.00372933 -0.0233976
0.00654743 0.0045938 -0.042424
0.0110729 0.0048638 -0.0276891
0.00150257 0.0129662 -0.0660991
0.000346568 0.00876843 -0.0556375
-0.000153695 0.00406048 -0.0711138
-0.00449359 -0.00495703 -0.0843024
0.00420583 0.00796487 -0.0443123
0.00551479 0.000596932 -0.0602555
0.00552643 0.00418849 -0.057403
0.0137822 0.0035792 -0.0370249
0.01121 0.00484172 -0.0438206
-0.00135411 -0.000285492 -0.0716446
-0.00102091 0.00248008 -0.0747376
-0.00112179 -0.00832553 -0.0877294
-0.00470784 0.000767531 -0.033667
-0.00424426 -0.00107656 -0.0114295
-0.00665134 0.00994115 -0.0506489
-0.0033293 -0.00240184 -0.0348677
0 0 0
-0.00447132 -0.00471122 -0.00710579
0.00344093 -0.00675783 -0.0758023
0.00266801 -0.00302053 -0.0779927
0.00225429 -0.00494582 -0.084824
-0.00139035 -0.00314459 -0.0104055
0 0 0
0 0 0
0.00285132 -0.0025012 -0.0153519
0.00670334 -0.00270823 -0.0156142
0.0123451 -0.00432698 -0.0225735
0.00616761 -0.00116923 -0.0367129
-0.00127835 -0.00270434 -0.0279934
0.00523197 -0.00628949 -0.0602882
0.003349 -0.00177774 -0.0535544
0.00463987 -0.00317614 -0.069164
0.00225857 0.00180238 -0.0784915
0.00283986 -0.00107005 -0.0499224
0.000789714 -0.00125235 -0.062839
-0.00253703 -0.00219206 -0.0447117
0.00417891 -0.00192338 -0.0664027
-0.00111323 0.00517088 -0.0750646
0.0136927 -0.00152608 -0.031591
0.00949545 0.000461037 -0.0136193
0.0127086 0.00193241 -0.0430004
0 0 0
-0.00111536 0.00180353 -0.0782244
-0.00111751 -0.00157732 -0.081397
-0.00111965 -0.00495817 -0.0845695
0 0 0
0 0 0
0 0 0
0.00105586 0.000620047 -0.0768468
0.00173815 -0.0027327 -0.0736287
0.00369926 -0.00118525 -0.0628551
0.00665804 0.000377855 -0.0314561
0.00246803 0.00158148 -0.0148473
-0.000165605 0.00146371 -0.029668
0.00541604 0.00100358 -0.0127247
0.0101418 0.000378091 -0.0292727
-0.000910168 0.00111843 -0.0125176
0.00249015 0.00522669 -0.0644969
0.00283536 0.00377811 -0.0484766
0.00963413 0.00153638 -0.0373519
0.00214097 -0.000967381 -0.070924
0.00698964 0.00176914 -0.0530856
-0.00266821 0.00286545 -0.0467416
0.00502338 0.000849222 -0.060063
-0.00111751 -0.00157732 -0.081397
0 0 0
0 0 0
0 0 0

VECTORS Acceleration float
-1.57251e+07 -9.07935e+07 2.09837e+08
-3.79249e+07 3.32144e+07 3.14671e+08
-7.83489e+07 2.35953e+08 4.9022e+08
-3.7786e+07 1.73955e+08 4.62267e+08
-2.83067e+08 -5.5507e+06 1.94614e+08
0 0 0
6.43743e+07 5.8375e+07 -1.03486e+08
-1.34546e+08 1.87865e+06 1.90725e+08
1.07572e+07 7.10548e+07 5.46623e+07
0 0 0
0 0 0
0 0 0
-8.42259e+07 -2.10619e+08 1.75219e+08
1.02706e+08 1.73902e+08 4.85608e+08
-1.06541e+08 -1.21947e+08 8.02313e+08
4.31986e+07 -1.37769e+08 1.44359e+08
-6.43544e+07 -4.45008e+07 -1.01706e+08
0 0 0
-3.80632e+07 -1.06964e+08 1.67665e+08
1.02429e+08 -1.07017e+08 1.91005e+08
1.02568e+08 3.37234e+07 3.38601e+08
0 0 0
-5.72053e+07 6.10526e+07 -954754
1.18295e+07 1.18525e+08 5.67582e+07
1.62316e+08 6.80809e+07 7.63919e+08
-6.23292e+07 -7.28322e+07 4.09744e+06
-7.16092e+07 -8.09825e+07 3.03237e+07
2.80889e+08 5.36995e+08 -1.65751e+09
-5.20938e+07 2.45699e+08 -5.0001e+08
4.97556e+07 -6.96025e+07 -2.19258e+07
1.58617e+08 -1.77948e+07 -1.26531e+07
1.12272e+08 1.23824e+08 -2.58084e+08
1.62568e+07 6.89609e+07 -1.48149e+08
-1.31064e+07 -7.65877e+07 9.73095e+06
-1.60604e+08 -2.66779e+08 -2.60529e+08
6.46488e+06 -3.12028e+07 -1.53078e+08
-5.761e+07 -5.59897e+07 -4.21151e+07
1.66451e+08 6.28164e+08 1.70541e+09
9.57362e+07 -5.47548e+07 2.06329e+07
1.37233e+07 1.14657e+08 3.44206e+07
2.03936e+07 5.67225e+07 1.65245e+08
-9.85434e+07 -5.07639e+07 9.04545e+07
2.15058e+07 -1.00055e+07 1.44976e+08
-1.55258e+06 -4.47556e+07 4.32104e+07
-8.95854e+07 -5.10979e+07 9.80325e+07
-1.427e+08 6.54279e+07 3.89986e+08
-2.08578e+07 8.13783e+07 -1.9391e+08
-3.65497e+06 1.13665e+07 1.03384e+08
1.33922e+08 -3.754e+07 -2.29221e+08
-9.5026e+07 8.91297e+07 2.25725e+07
-4.51431e+08 -1.11707e+08 -1.66384e+09
-3.55163e+07 1.45768e+07 1.37574e+07
-1.75175e+07 -2.62067e+07 -1.64866e+07
-3.75318e+07 -2.24456e+08 -3.21304e+07
-3.79784e+07 -1.31414e+07 4.55889e+08
-3.26604e+07 4.69219e+06 8.94789e+07
-1.09938e+08 -3.6146e+08 -1.5414e+09
5.4296e+07 -1.60424e+08 -4.54345e+08
8.76518e+06 3.78614e+06 -2.10109e+07
-4.18227e+07 6.24098e+06 1.02591e+07
-1.7465e+08 6.85821e+07 6.12963e+07
-4.77466e+06 -1.87269e+07 4.83444e+07
-2.11003e+06 -1.56628e+07 8.68958e+07
2.95054e+07 2.03981e+08 1.06606e+08
3.9067e+07 -8.02318e+07 -8.07442e+06
-2.8333e+06 -5.86282e+07 -9.36439e+07
-8.49259e+07 -4.14382e+08 1.35169e+09
5.2889e+07 -1.67871e+08 -2.61203e+07
2.02301e+07 -5.40004e+07 7.02902e+06
8.25015e+07 1.10087e+08 3.44518e+07
8.63386e+07 1.3377e+08 2.04093e+08
1.43148e+08 -9.92935e+07 3.13975e+08
-1.7951e+08 4.19465e+07 2.284e+07
-1.06606e+08 -5.41968e+07 4.37269e+07
-1.01375e+08 4.05251e+07 6.38667e+07
7.14067e+08 1.38625e+08 -1.92615e+09
-1.1946e+07 -2.79684e+07 6.38623e+08
4.80205e+07 -1.09862e+08 7.721e+08
2.65295e+07 5.79401e+07 1.0116e+09
1.95317e+07 1.60743e+07 -5.10961e+08
2.95464e+08 1.32866e+08 -1.49818e+09
-1.1403e+08 -1.02751e+08 -1.54376e+09
-3.50287e+07 -6.28169e+07 5.97434e+07
-5.04175e+06 9.69986e+07 7.7565e+07
-2.19539e+07 -2.15538e+07 -3.98949e+07
7.58401e+07 -7.57191e+06 8.71658e+06
9.42282e+07 -2.10326e+07 1.20069e+06
5.16189e+07 -1.35328e+07 1.56079e+08
-7.55096e+07 -4.59459e+07 7.04021e+07
-7.76766e+07 -7.62579e+07 5.27914e+07
-4.68483e+07 -4.69478e+07 1.3805e+08
-7.6766e+07 2.71802e+07 2.05262e+08
3.29537e+07 -4.54225e+07 6.66911e+07
-4.15496e+06 1.40688e+07 3.04792e+07
2.09576e+06 -2.6476e+07 -6.79044e+07
-8.82632e+07 8.40219e+07 8.44129e+07
1.85961e+08 5.88774e+07 7.00364e+07
4.25017e+07 -1.11797e+08 6.94587e+07
3.23216e+07 3.34689e+07 3.26636e+08
0 0 0
0 0 0
0 0 0

VECTORS Contact_Forces float
0 0 0
0 0 0
0 0 0
0 0 0
0 0 0
0 0 0
0 0 0
0 0 0
0 0 0
0 0 0
0 0 0
0 0 0
0 0 0
0 0 0
0 0 0
0 0 0
0 0 0
0 0 0
0 0 0
0 0 0
0 0 0
0 0 0
0 0 0
0 0 0
0 0 0
0 0 0
0 0 0
0 0 0
0 0 0
0 0 0
0 0 0
0 0 0
0 0 0
0 0 0
0 0 0
0 0 0
0 0 0
0 0 0
0 0 0
0 0 0
0 0 0
0 0 0
0 0 0
0 0 0
0 0 0
0 0 0
0 0 0
0 0 0
0 0 0
0 0 0
0 0 0
0 0 0
0 0 0
0 0 0
0 0 0
0 0 0
0 0 0
0 0 0
0 0 0
0 0 0
0 0 0
0 0 0
0 0 0
0 0 0
0 0 0
0 0 0
0 0 0
0 0 0
0 0 0
0 0 0
0 0 0
0 0 0
0 0 0
0 0 0
0 0 0
0 0 0
0 0 0
0 0 0
0 0 0
0 0 0
0 0 0
0 0 0
0 0 0
0 0 0
0 0 0
0 0 0
0 0 0
0 0 0
0 0 0
0 0 0
0 0 0
0 0 0
0 0 0
0 0 0
0 0 0
0 0 0
0 0 0
0 0 0
0 0 0
0 0 0
0 0 0
0 0 0

VECTORS Contact_Pressure_/_Normal float
0 0 0
0 0 0
0 0 0
0 0 0
0 0 0
0 0 0
0 0 0
0 0 0
0 0 0
0 0 0
0 0 0
0 0 0
0 0 0
0 0 0
0 0 0
0 0 0
0 0 0
0 0 0
0 0 0
0 0 0
0 0 0
0 0 0
0 0 0
0 0 0
0 0 0
0 0 0
0 0 0
0 0 0
0 0 0
0 0 0
0 0 0
0 0 0
0 0 0
0 0 0
0 0 0
0 0 0
0 0 0
0 0 0
0 0 0
0 0 0
0 0 0
0 0 0
0 0 0
0 0 0
0 0 0
0 0 0
0 0 0
0 0 0
0 0 0
0 0 0
0 0 0
0 0 0
0 0 0
0 0 0
0 0 0
0 0 0
0 0 0
0 0 0
0 0 0
0 0 0
0 0 0
0 0 0
0 0 0
0 0 0
0 0 0
0 0 0
0 0 0
0 0 0
0 0 0
0 0 0
0 0 0
0 0 0
0 0 0
0 0 0
0 0 0
0 0 0
0 0 0
0 0 0
0 0 0
0 0 0
0 0 0
0 0 0
0 0 0
0 0 0
0 0 0
0 0 0
0 0 0
0 0 0
0 0 0
0 0 0
0 0 0
0 0 0
0 0 0
0 0 0
0 0 0
0 0 0
0 0 0
0 0 0
0 0 0
0 0 0
0 0 0
0 0 0

VECTORS Contact_Pressure_/_Tangent float
0 0 0
0 0 0
0 0 0
0 0 0
0 0 0
0 0 0
0 0 0
0 0 0
0 0 0
0 0 0
0 0 0
0 0 0
0 0 0
0 0 0
0 0 0
0 0 0
0 0 0
0 0 0
0 0 0
0 0 0
0 0 0
0 0 0
0 0 0
0 0 0
0 0 0
0 0 0
0 0 0
0 0 0
0 0 0
0 0 0
0 0 0
0 0 0
0 0 0
0 0 0
0 0 0
0 0 0
0 0 0
0 0 0
0 0 0
0 0 0
0 0 0
0 0 0
0 0 0
0 0 0
0 0 0
0 0 0
0 0 0
0 0 0
0 0 0
0 0 0
0 0 0
0 0 0
0 0 0
0 0 0
0 0 0
0 0 0
0 0 0
0 0 0
0 0 0
0 0 0
0 0 0
0 0 0
0 0 0
0 0 0
0 0 0
0 0 0
0 0 0
0 0 0
0 0 0
0 0 0
0 0 0
0 0 0
0 0 0
0 0 0
0 0 0
0 0 0
0 0 0
0 0 0
0 0 0
0 0 0
0 0 0
0 0 0
0 0 0
0 0 0
0 0 0
0 0 0
0 0 0
0 0 0
0 0 0
0 0 0
0 0 0
0 0 0
0 0 0
0 0 0
0 0 0
0 0 0
0 0 0
0 0 0
0 0 0
0 0 0
0 0 0
0 0 0

VECTORS Tied_Contact_Forces float
0 0 0
0 0 0
0 0 0
0 0 0
0 0 0
0 0 0
0 0 0
0 0 0
0 0 0
0 0 0
0 0 0
0 0 0
0 0 0
0 0 0
0 0 0
0 0 0
0 0 0
0 0 0
0 0 0
0 0 0
0 0 0
0 0 0
0 0 0
0 0 0
0 0 0
0 0 0
0 0 0
0 0 0
0 0 0
0 0 0
0 0 0
0 0 0
0 0 0
0 0 0
0 0 0
0 0 0
0 0 0
0 0 0
0 0 0
0 0 0
0 0 0
0 0 0
0 0 0
0 0 0
0 0 0
0 0 0
0 0 0
0 0 0
0 0 0
0 0 0
0 0 0
0 0 0
0 0 0
0 0 0
0 0 0
0 0 0
0 0 0
0 0 0
0 0 0
0 0 0
0 0 0
0 0 0
0 0 0
0 0 0
0 0 0
0 0 0
0 0 0
0 0 0
0 0 0
0 0 0
0 0 0
0 0 0
0 0 0
0 0 0
0 0 0
0 0 0
0 0 0
0 0 0
0 0 0
0 0 0
0 0 0
0 0 0
0 0 0
0 0 0
0 0 0
0 0 0
0 0 0
0 0 0
0 0 0
0 0 0
0 0 0
0 0 0
0 0 0
0 0 0
0 0 0
0 0 0
0 0 0
0 0 0
0 0 0
0 0 0
0 0 0
0 0 0

CELL_DATA 47
SCALARS ELEMENT_ID int 1
LOOKUP_TABLE default
0
0
0
0
0
0
0
0
0
0
0
0
1
2
3
4
5
6
7
8
9
10
11
12
13
14
15
16
17
18
19
20
21
22
23
24
25
26
27
28
29
30
31
32
33
34
35

SCALARS PART_ID int 1
LOOKUP_TABLE default
36
36
36
36
36
36
37
37
37
37
37
37
1
1
1
1
1
1
1
1
1
1
1
1
1
1
1
1
1
1
1
1
1
1
1
1
1
1
1
1
1
1
1
1
1
1
1

SCALARS EROSION_STATUS int 1
LOOKUP_TABLE default
1
1
1
1
1
1
1
1
1
1
1
1
1
1
1
1
1
1
1
1
1
1
1
1
1
1
1
1
1
1
1
1
1
1
1
1
1
1
1
1
1
1
1
1
1
1
1

SCALARS 1DELEM_Plastic_Strain float 1
LOOKUP_TABLE default
0
0
0
0
0
0
0
0
0
0
0
0
0
0
0
0
0
0
0
0
0
0
0
0
0
0
0
0
0
0
0
0
0
0
0
0
0
0
0
0
0
0
0
0
0
0
0

SCALARS 1DELEM_Specific_Energy float 1
LOOKUP_TABLE default
0
0
0
0
0
0
0
0
0
0
0
0
0
0
0
0
0
0
0
0
0
0
0
0
0
0
0
0
0
0
0
0
0
0
0
0
0
0
0
0
0
0
0
0
0
0
0

SCALARS 1DELEM_Von_Mises float 1
LOOKUP_TABLE default
0
0
0
0
0
0
0
0
0
0
0
0
0
0
0
0
0
0
0
0
0
0
0
0
0
0
0
0
0
0
0
0
0
0
0
0
0
0
0
0
0
0
0
0
0
0
0

SCALARS 3DELEM_Plastic_Strain float 1
LOOKUP_TABLE default
0
0
0
0
0
0
0
0
0
0
0
0
0
0
0
0
0
0
0
0
0
0
0
0
0
0
0
0
0
0
0
0
0
0
0
0
0
0
0
0
0
0
0
0
0
0
0

SCALARS 3DELEM_Specific_Energy float 1
LOOKUP_TABLE default
0
0
0
0
0
0
0
0
0
0
0
0
1.18122e+08
1.66929e+08
1.69393e+08
1.64984e+08
1.9541e+08
1.68807e+08
1.66396e+08
1.54093e+08
1.42788e+08
2.24181e+08
9.8109e+07
1.13439e+08
1.54767e+08
1.71654e+08
1.69148e+08
1.62343e+08
1.90949e+08
1.53447e+08
1.89734e+08
2.0182e+08
1.78668e+08
1.72535e+08
1.74969e+08
1.60109e+08
1.01489e+08
1.36213e+08
1.8073e+08
1.84407e+08
1.63934e+08
1.62195e+08
1.66008e+08
1.73353e+08
1.45569e+08
1.48735e+08
9.07797e+07

SCALARS 3DELEM_Von_Mises float 1
LOOKUP_TABLE default
0
0
0
0
0
0
0
0
0
0
0
0
450.299
658.515
629.034
602.723
580.063
573.068
639.525
511.781
549.516
704.932
375.882
448.417
574.772
545.444
584.679
611.637
635.889
555.916
692.64
582.56
544.831
644.481
616.739
505.45
373.703
440.092
648.566
594.316
517.695
504.505
598.921
604.131
487.099
549.787
370.85

TENSORS 3DELEM_Stress float
0 0 0 
0 0 0 
0 0 0 
0 0 0 
0 0 0 
0 0 0 
0 0 0 
0 0 0 
0 0 0 
0 0 0 
0 0 0 
0 0 0 
0 0 0 
0 0 0 
0 0 0 
0 0 0 
0 0 0 
0 0 0 
0 0 0 
0 0 0 
0 0 0 
0 0 0 
0 0 0 
0 0 0 
0 0 0 
0 0 0 
0 0 0 
0 0 0 
0 0 0 
0 0 0 
0 0 0 
0 0 0 
0 0 0 
0 0 0 
0 0 0 
0 0 0 
111.612 83.8609 6.02581
83.8609 22.9313 -20.987
6.02581 -20.987 484.815
-33.9019 -10.1568 19.4326
-10.1568 -3.94342 -25.8402
19.4326 -25.8402 636.457
23.4331 -3.31824 0.648896
-3.31824 6.305 -58.2704
0.648896 -58.2704 635.548
49.0371 -24.659 -11.1002
-24.659 23.6212 -32.9619
-11.1002 -32.9619 634.106
147.099 12.5537 -31.7769
12.5537 148.869 -125.515
-31.7769 -125.515 682.499
27.8962 52.0655 39.1238
52.0655 -41.4102 -22.3134
39.1238 -22.3134 550.545
47.8145 17.6615 29.7954
17.6615 -35.9963 -38.2317
29.7954 -38.2317 634.987
10.8394 12.8133 -39.0699
12.8133 2.99732 -60.4719
-39.0699 -60.4719 502.732
-20.8247 7.88289 -7.87818
7.88289 17.0503 -28.4425
-7.87818 -28.4425 544.092
-37.271 -38.0792 31.7572
-38.0792 29.9309 -31.1122
31.7572 -31.1122 691.5
151.536 -9.01329 -69.748
-9.01329 135.054 -24.0951
-69.748 -24.0951 496.146
127.965 1.05699 -43.7198
1.05699 10.7664 13.0689
-43.7198 13.0689 498.931
70.4533 -12.4633 -26.2834
-12.4633 21.249 -50.2106
-26.2834 -50.2106 610.161
152.52 7.76725 -61.1603
7.76725 132.563 -103.03
-61.1603 -103.03 646.488
-86.3522 -12.7739 -33.5544
-12.7739 -0.267361 2.30852
-33.5544 2.30852 533.239
17.5224 10.0338 21.8473
10.0338 35.5189 -73.647
21.8473 -73.647 623.053
-20.3512 -26.7425 -52.6511
-26.7425 27.2744 36.5487
-52.6511 36.5487 626.506
83.8346 18.1962 109.754
18.1962 58.982 14.4967
109.754 14.4967 591.81
-54.1085 -24.3938 -57.6283
-24.3938 -33.8239 -26.5218
-57.6283 -26.5218 638.37
29.7032 -21.3793 -37.0047
-21.3793 29.4647 -17.3491
-37.0047 -17.3491 606.641
44.2392 -53.6799 -5.96306
-53.6799 22.8321 -10.7572
-5.96306 -10.7572 569.631
-0.573601 -2.83812 23.5486
-2.83812 -18.772 71.8678
23.5486 71.8678 621.14
-7.54302 -17.5294 -45.0438
-17.5294 33.0953 -3.54287
-45.0438 -3.54287 622.761
198.874 30.1139 99.4908
30.1139 165.85 31.3748
99.4908 31.3748 650.649
180.572 -3.20657 -34.4475
-3.20657 95.5782 53.7354
-34.4475 53.7354 487.335
83.3094 20.72 -82.9238
20.72 59.7597 14.492
-82.9238 14.492 484.715
16.3712 -25.2825 9.55589
-25.2825 -27.1577 70.5031
9.55589 70.5031 628.73
65.045 -29.4379 22.6736
-29.4379 20.1688 -11.1158
22.6736 -11.1158 631.834
58.5289 6.94256 -6.59144
6.94256 31.3617 -4.33694
-6.59144 -4.33694 561.785
147.909 -19.9264 35.0046
-19.9264 143.08 55.6127
35.0046 55.6127 635.762
-5.21117 -7.32927 -33.1084
-7.32927 -14.3325 -24.6655
-33.1084 -24.6655 584.676
69.7982 58.0258 58.1167
58.0258 -1.64452 -0.69051
58.1167 -0.69051 617.952
136.623 -16.8805 35.742
-16.8805 117.035 47.7917
35.742 47.7917 601.632
36.4508 10.6009 9.28028
10.6009 -25.1477 -30.4028
9.28028 -30.4028 549.758
140.975 31.3666 12.4352
31.3666 81.002 -0.812203
12.4352 -0.812203 473.5

