# vtk DataFile Version 3.0
vtk output
ASCII
DATASET UNSTRUCTURED_GRID
FIELD FieldData 2
TIME 1 1 double
0.0100007
CYCLE 1 1 int
0
POINTS 102 float
0.60652 -4.99525 8.05216
-0.0196401 5.00018 -0.0581769
-0.5533 5.00521 8.08033
10.0004 4.99772 -0.0590453
0.4576 -4.99307 19.0696
-0.02 5 30
9.99299 4.99405 20.9287
-0.28955 4.99158 18.9051
-10.0005 -4.99419 20.7739
0.02 -5 30
-10 5 30
-10 -5 30
9.98717 5.00027 9.59457
9.99791 -5.00228 -0.0594533
9.9965 -4.99513 14.9262
-9.99388 4.99503 14.9427
-9.99081 -4.9996 9.16963
10 -5 30
-9.99964 5.00262 -0.0573119
-10.0021 -4.99738 -0.0577199
0.0179125 -4.99983 -0.0585884
10 5 30
0.312109 -4.99757 3.99567
-4.69496 -4.99875 3.99706
-4.99209 -4.99861 -0.0581541
-9.99896 -4.99571 25.3876
-4.9908 -4.99703 25.3873
-4.99 -5 30
5.01 -5 30
0.236135 -4.99771 24.5337
5.22553 -4.99893 24.5313
9.99697 -4.99919 22.4703
5.22716 -4.99708 17.0012
-4.77326 -4.99559 19.9188
9.99278 -4.99548 7.44132
5.29839 -4.99572 11.497
5.30019 -4.99827 3.9956
5.00791 -5.00105 -0.0590209
0.5304 -4.99323 13.561
-9.99531 -4.99886 4.55686
-4.69087 -4.99696 8.61322
-9.99571 -4.99631 14.9714
-4.76924 -4.99527 14.1189
9.99306 4.99804 4.76695
9.99325 -0.000266896 4.7667
9.99914 -0.00227544 -0.0592493
9.9975 -0.00237316 17.9336
9.99577 -0.00194297 25.4637
9.99314 0.00388088 12.2651
9.99729 4.99647 15.2611
10 0 30
9.99547 4.99676 25.464
-0.288065 4.99774 4.01074
4.71977 4.99584 4.01038
4.99036 4.99895 -0.0586111
4.98704 4.99691 25.4633
4.99 5 30
-5.01 5 30
-0.154097 4.99684 24.4527
-5.14243 4.99869 24.4522
-9.99646 4.99924 22.4722
-5.14282 4.99724 16.9236
4.85437 4.99647 19.9144
-9.99242 4.99804 7.44469
-5.27136 4.99907 11.5142
-5.27659 4.99554 4.01123
-5.00964 5.0014 -0.0577444
-0.418714 4.99956 13.4944
4.71801 4.9985 8.83593
4.85551 4.99898 14.2497
-9.99506 -0.000146526 4.55871
-10.0009 0.00261936 -0.0575159
-9.99598 0.00132192 17.8584
-9.99685 0.00220972 25.388
-9.9943 -0.000523088 12.0554
-10 0 30
-5.01086 0.0013981 -0.0579484
-0.000863818 0.000171958 -0.0583826
5.00914 -0.00105419 -0.0588168
0 0 30
-5.01 0 30
5.01 0 30
5.29957 -0.00129834 3.9942
0.291537 -0.000720586 3.99495
0.0252449 0.00390504 8.06575
0.0835256 -0.000752029 18.984
0.216001 -0.000215703 24.5315
5.22661 0.000138203 19.993
-5.00894 0.000710704 25.3878
-5.14293 0.000683539 19.8385
5.00811 -0.000910555 25.4625
5.29803 0.000768966 8.81971
0.160138 0.00262154 13.4778
-4.77241 0.000957842 17.0017
-5.27577 -0.00174527 4.01301
-4.6921 0.00174779 11.4978
5.22501 0.00103012 14.3272
-5.27242 0.000750149 8.62822
-0.000863818 0.000171958 -0.0583826
0 0 0
0 0 30
0 0 30

CELLS 47 211
2 98 19
2 98 13
2 98 3
2 98 18
2 98 20
2 98 1
2 100 11
2 100 17
2 100 21
2 100 10
2 100 9
2 100 5
4 0 1 2 3
4 4 5 6 7
4 4 5 7 8
4 4 5 6 9
4 5 8 10 11
4 0 12 13 14
4 0 2 7 12
4 4 8 15 16
4 7 8 10 15
4 4 6 14 17
4 1 2 18 19
4 0 1 2 19
4 4 5 8 9
4 5 8 9 11
4 0 4 15 16
4 5 7 8 10
4 0 4 7 15
4 0 3 12 13
4 0 4 7 12
4 4 7 8 15
4 0 2 15 16
4 4 6 7 12
4 4 6 9 17
4 0 3 13 20
4 0 1 19 20
4 2 16 18 19
4 4 6 12 14
4 0 2 7 15
4 0 2 16 19
4 6 9 17 21
4 0 4 12 14
4 0 2 3 12
4 5 6 9 21
4 2 15 16 18
4 0 1 3 20

CELL_TYPES 47
3
3
3
3
3
3
3
3
3
3
3
3
10
10
10
10
10
10
10
10
10
10
10
10
10
10
10
10
10
10
10
10
10
10
10
10
10
10
10
10
10
10
10
10
10
10
10

POINT_DATA 102
SCALARS NODE_ID int 1
LOOKUP_TABLE default
20
18
22
6
19
16
15
21
10
11
7
2
14
4
12
17
9
3
8
1
13
5
23
24
25
26
27
28
29
30
31
32
33
34
35
36
37
38
39
40
41
42
43
44
45
46
47
48
49
50
51
52
53
54
55
56
57
58
59
60
61
62
63
64
65
66
67
68
69
70
71
72
73
74
75
76
77
78
79
80
81
82
83
84
85
86
87
88
89
90
91
92
93
94
95
96
97
98
99
100
101
102

SCALARS Time_Step float 1
LOOKUP_TABLE default
1.00055e-06
1.47838e+07
1.00036e-06
1.51395e+07
1.00142e-06
2.09559e+07
1.00141e-06
1.00113e-06
1.00073e-06
1.77935e+07
1.35445e+07
9.84791e+06
1.0012e-06
1.28134e+07
1.00178e-06
1.00051e-06
1.00053e-06
1.34359e+07
1.27647e+07
1.5174e+07
1.13089e+07
9.76738e+06
1.00043e-06
1.00058e-06
1.00136e-06
1.00074e-06
1.00072e-06
1.00097e-06
1.00163e-06
1.00233e-06
1.00242e-06
1.00245e-06
1.00192e-06
1.00078e-06
1.00167e-06
1.00171e-06
1.00116e-06
1.00113e-06
1.00211e-06
1.00064e-06
1.00068e-06
1.00165e-06
1.00172e-06
1.00074e-06
1.00159e-06
1.00102e-06
1.00187e-06
1.00175e-06
1.0017e-06
1.002e-06
1.00113e-06
1.00073e-06
1.00069e-06
1.00111e-06
1.00078e-06
1.0013e-06
1.00091e-06
1.00129e-06
1.00221e-06
1.00232e-06
1.0023e-06
1.0007e-06
1.00211e-06
1.0014e-06
1.00069e-06
1.00086e-06
1.00093e-06
1.00132e-06
1.00067e-06
1.00148e-06
1.00109e-06
1.00073e-06
1.00072e-06
1.00154e-06
1.0006e-06
1.00117e-06
1.00069e-06
1.00084e-06
1.00061e-06
1.00097e-06
1.00074e-06
1.00073e-06
1.00064e-06
1.00048e-06
1.00039e-06
1.00098e-06
1.00216e-06
1.00211e-06
1.00118e-06
1.00087e-06
1.00129e-06
1.00111e-06
1.00154e-06
1.00068e-06
1.00038e-06
1.00092e-06
1.00198e-06
1.00073e-06
1.0004e-06
1e+06
1.00093e-06
1e+06

SCALARS Mass_Change float 1
LOOKUP_TABLE default
2.2422
0
2.30027
0
2.01901
0
1.68804
2.04981
2.05601
0
0
0
1.65365
0
1.21511
2.53445
2.3947
0
0
0
0
0
2.31431
2.26565
2.61505
1.57571
1.35447
1.57575
2.23139
2.32331
1.67151
0.876327
1.3781
2.52078
0.804042
1.19955
1.88587
2.06013
2.06006
2.45949
3.57507
0.751165
1.29388
2.27066
1.82733
2.77493
1.23034
1.66369
1.35351
1.36066
1.64855
1.64506
2.48718
1.83623
2.41868
1.95553
1.64466
2.22981
1.67708
1.6695
0.829841
2.71296
1.07589
0.784109
2.84691
1.8988
2.05224
1.20458
1.17278
1.61888
1.8458
2.83722
2.70845
1.64311
2.36837
1.5791
2.50446
2.44585
2.16814
1.88685
1.57571
1.64506
2.28567
2.57106
2.49283
2.50328
1.62474
1.70208
1.65405
2.86202
2.33662
1.75369
1.76339
2.91874
2.45514
3.03041
1.80187
3.07308
2.24947
0
1.76722
0

VECTORS Velocity float
673.832 -45.6082 -1917.41
-363.136 -121.879 -2062.89
1.36636 -754.713 -1539.96
-363.293 -739.111 -3445.16
1556.25 -567.03 -1786.23
0 0 0
1207.09 683.093 -266.024
562.739 -804.355 -787.695
1886.25 -221.49 -205.718
0 0 0
0 0 0
0 0 0
-229.682 -83.7573 -1176.89
-979.349 -738.979 -3449.52
447.841 67.6646 -4180.4
459.878 111.419 -850.656
1750.03 1908.74 -1010.03
0 0 0
-362.98 492.889 -686.147
-979.036 493.021 -690.514
-979.193 -124.211 -2072.78
0 0 0
-263.188 -121.853 -2013.98
-162.532 302.882 -1491.9
-979.115 184.405 -1381.65
941.253 343.604 -351.232
868.388 122.149 -312.532
0 0 0
0 0 0
921.751 -178.917 -726.233
817.436 141.105 -644.986
1095.41 728.364 -938.235
1263.24 -5.6859 -1786.9
1433.55 -117.011 -1143.71
5.08449 -91.414 -2548.92
115.851 165.444 -1908.35
-254.829 -381.231 -2471.66
-979.271 -431.595 -2761.15
355.952 83.7486 -1587.55
220.55 452.719 -993.004
773.895 254.082 -1352.62
277.236 457.768 -655.757
205.466 123.788 -848.779
252.758 -1014.89 -2758.56
-35.6488 -718.27 -2988.7
-671.321 -739.045 -3447.34
560.604 17.7598 -1338.93
181.678 215.539 -281.818
-15.8205 200.367 -2230.53
774.299 -357.201 -1020.51
0 0 0
156.477 -26.738 39.5197
279.04 -202.848 -1799.33
347.494 -392.183 -2602.06
-363.214 -430.495 -2754.02
565.943 -258.72 -360.507
0 0 0
0 0 0
1070.01 -304.516 -492.72
1590.02 290.124 -348.323
2369.26 956.873 -847.733
1029.3 -389.161 -1384.75
750.796 -127.924 -1158.65
634.838 359.979 -1074.94
615.637 -103.375 -1125.77
298.711 429.191 -1269.58
-363.058 185.505 -1374.52
743.124 -199.286 -1416.1
343.479 -325.951 -2476.5
278.031 -74.4946 -1771.88
8.635 414.528 -1086.22
-671.008 492.955 -688.331
921.55 194.965 -70.0912
1103.32 399.902 -708.11
517.588 757.993 -767.588
0 0 0
-671.086 185.571 -1376.7
-671.164 -123.045 -2067.83
-671.243 -431.661 -2758.97
0 0 0
0 0 0
0 0 0
-81.5784 -410.525 -2717.78
-50.7682 -123.948 -2056.68
181.927 -392.69 -1833.86
1009.85 -413.286 -929.453
712.521 -280.05 -505.364
815.034 140.921 -1332.79
881.634 136.533 -315.652
1209.79 -37.1222 -734.402
360.128 -145.349 -569.303
442.096 -55.6901 -2333.89
541.647 -55.3163 -1523.85
948.073 -100.581 -916.713
38.043 452.485 -1501.85
369.695 -31.6926 -1171.73
387.802 117.353 -1756.33
327.533 75.5167 -1360.12
-671.164 -123.045 -2067.83
0 0 0
0 0 0
0 0 0

VECTORS Displacement float
0.000295187 0.00475117 -0.0394181
0.000359899 0.000176699 -0.0581769
0.00103291 0.00520595 -0.0436152
0.000359561 -0.00227559 -0.0590453
0.00385119 0.00692683 -0.0111876
0 0 0
-0.00701272 -0.00594497 -0.0113376
-0.0017621 -0.00842269 -0.0177167
-0.000462606 0.00581148 -0.0161169
0 0 0
0 0 0
0 0 0
-0.0128299 0.000269486 -0.0354318
-0.00208787 -0.00227529 -0.0594533
-0.00350387 0.00487268 -0.0438288
0.00611886 -0.00497036 -0.0273134
0.00919192 0.000402846 -0.0403713
0 0 0
0.000360235 0.0026192 -0.0573119
-0.0020872 0.00261951 -0.0577199
-0.00208754 0.000167217 -0.0585884
0 0 0
-0.00100355 0.00242799 -0.0501232
0.00192755 0.0012466 -0.0487299
-0.00208737 0.00139336 -0.0581541
0.00104395 0.00429131 -0.00735001
-0.000801177 0.00297326 -0.00771706
0 0 0
0 0 0
-0.000739187 0.00229035 -0.00666228
-0.00134179 0.00106768 -0.00910139
-0.00302946 0.000806322 -0.0147112
0.000281446 0.00291979 -0.024197
-0.00013823 0.00441027 -0.016553
-0.00721972 0.00452044 -0.0436809
-0.00472314 0.00428485 -0.0338294
-0.00292653 0.00173081 -0.0501841
-0.0020877 -0.00105403 -0.0590209
0.000412914 0.00676882 -0.0251748
0.00468881 0.00113519 -0.0481434
0.00602242 0.00304179 -0.0375641
0.00428663 0.00368887 -0.0285828
0.00388408 0.00473028 -0.0265156
-0.00693697 -0.00195671 -0.0480463
-0.00675146 -0.000266896 -0.0483
-0.000864155 -0.00227544 -0.0592493
-0.00250472 -0.00237316 -0.0213692
-0.00423249 -0.00194297 -0.00631612
-0.00686132 0.00388088 -0.0349338
-0.00271287 -0.00352833 -0.0238855
0 0 0
-0.00452698 -0.00323817 -0.00602544
-0.000897956 -0.00226456 -0.0512316
-0.0030594 -0.00415667 -0.0515931
0.00035973 -0.00104945 -0.0586111
-0.00296218 -0.00309224 -0.00667173
0 0 0
0 0 0
-0.000202707 -0.00316411 -0.00868963
0.00146322 -0.00130782 -0.00926427
0.00353587 -0.00076368 -0.0127923
0.00107497 -0.00276389 -0.0228671
-0.0017406 -0.00352919 -0.0170769
0.00757727 -0.00196034 -0.0403077
0.00581024 -0.000933857 -0.0327686
0.000579009 -0.00446411 -0.0507452
0.000360067 0.00139795 -0.0577444
0.00234656 -0.000441459 -0.0289668
-0.00482346 -0.00149613 -0.0410388
-0.000598666 -0.00101618 -0.0266877
0.00494265 -0.000146526 -0.0462927
-0.000863481 0.00261936 -0.0575159
0.00402333 0.00132192 -0.0216043
0.00314557 0.00220972 -0.00697282
0.00569809 -0.000523088 -0.034644
0 0 0
-0.00086365 0.0013981 -0.0579484
-0.000863818 0.000171958 -0.0583826
-0.000863987 -0.00105419 -0.0588168
0 0 0
0 0 0
0 0 0
-0.0035437 -0.00129834 -0.0515847
-0.00157537 -0.000720586 -0.0508414
-0.00070087 0.00390504 -0.0420061
0.00054499 -0.000752029 -0.0178645
-0.000873744 -0.000215703 -0.00884242
-0.000268802 0.000138203 -0.017357
0.0010558 0.000710704 -0.00725031
0.000959241 0.000683539 -0.017935
-0.00189239 -0.000910555 -0.0074851
-0.00508224 0.000768966 -0.0410818
0.000919715 0.00262154 -0.0294235
0.000714788 0.000957842 -0.0236785
0.00139828 -0.00174527 -0.0489655
0.00478626 0.00174779 -0.0330049
-0.00186245 0.00103012 -0.0282263
0.00475001 0.000750149 -0.0387492
-0.000863818 0.000171958 -0.0583826
0 0 0
0 0 0
0 0 0

VECTORS Acceleration float
-1.2804e+07 -1.54265e+07 -2.30996e+08
-1.29727e+07 1.15333e+07 -2.37088e+08
-2.762e+07 -1.82921e+08 -1.82767e+08
-1.31937e+07 3.74097e+07 -2.38064e+08
-8.23947e+07 -5.99844e+07 -2.87022e+08
0 0 0
-4.3038e+06 1.03288e+08 -1.55578e+08
4.01531e+07 1.18665e+08 -1.54691e+08
1.56274e+08 -4.31421e+07 -8.71769e+07
0 0 0
0 0 0
0 0 0
1.01791e+08 -2.19481e+07 -2.37982e+08
1.26246e+07 3.74407e+07 -2.60609e+08
-3.62378e+07 -6.88705e+06 2.48543e+08
-1.76909e+06 4.64868e+07 -1.27099e+08
-4.02772e+07 7.94792e+07 -1.71748e+08
0 0 0
-1.27526e+07 -1.42398e+07 -2.36115e+08
1.30658e+07 -1.42087e+07 -2.58661e+08
1.28448e+07 1.16676e+07 -2.59637e+08
0 0 0
1.80773e+07 2.48386e+07 19393.7
-8.80545e+06 5.9897e+07 -3.68059e+07
7.37064e+07 1.58394e+08 9.20199e+08
3.69009e+07 6.02562e+06 -9.80317e+06
8.96108e+06 2.696e+07 1.23825e+06
1.30325e+07 2.95906e+08 -9.91255e+08
6.38175e+06 8.09357e+07 -3.67849e+08
6.77006e+07 4.86565e+07 3.42917e+07
2.4153e+07 9.92648e+07 7.14008e+07
-4.93938e+07 9.25511e+07 -1.88894e+08
-6.83458e+06 7.49819e+07 -1.05533e+08
4.03019e+07 4.77631e+07 6.33957e+07
2.37989e+07 -6.16798e+07 -1.99831e+08
7.54626e+07 7.33421e+06 -2.17477e+08
2.11763e+07 3.54044e+07 -1.46424e+07
-1.03955e+08 2.82393e+08 1.10657e+09
5.02776e+07 -7.64052e+06 -2.26767e+07
1.68126e+07 2.55291e+07 -8.247e+06
-3.13446e+07 -2.40475e+07 -7.08402e+07
9.25845e+06 -2.9129e+07 236007
5.55861e+07 -2.42113e+07 3.60988e+06
-2.28677e+07 -8.13167e+06 1.53533e+07
-1.89658e+07 3.55674e+06 1.15339e+07
-1.36977e+08 1.44337e+07 4.38809e+08
-7.21786e+07 6.21156e+07 -2.13804e+08
-8.64385e+06 5.21168e+06 -6.83677e+06
-7.06058e+06 -3.78591e+07 -1.63528e+08
-1.74548e+08 3.07116e+06 -2.44548e+07
-3.5865e+08 -4.66399e+07 -9.97599e+08
-1.31069e+07 -4.01484e+07 2.42712e+07
3.90522e+07 9.14997e+07 -6.16502e+06
3.89149e+07 9.47996e+07 -110768
-6.41546e+07 -1.01118e+08 3.93856e+08
1.20071e+07 -3.01337e+07 2.76614e+07
-1.06048e+08 -3.13198e+08 -9.79311e+08
8.88722e+06 -6.98926e+07 -3.30246e+08
-5.80561e+06 -5.54654e+07 -2.26007e+06
1.32208e+07 -8.3262e+07 1.89336e+07
7.18413e+07 -7.74253e+07 -3.94005e+07
4.82068e+07 -8.68018e+07 -1.14575e+07
-4.68382e+07 -9.41827e+07 1.85471e+07
-2.28143e+07 -3.36557e+07 -7.82948e+07
-5.93151e+07 3.26966e+07 -7.52967e+07
4.14028e+07 1.38732e+08 -1.65766e+07
8.74072e+06 -5.34512e+08 1.22913e+09
-6.78862e+07 -1.96678e+07 -6.168e+07
-1.35965e+07 7.63184e+07 1.12549e+07
-1.72084e+08 -7.59606e+07 -2.29439e+07
1.64586e+07 -1.28952e+07 -4.35753e+07
1.56087e+08 -2.01311e+07 4.92683e+08
-1.31856e+07 -3.68284e+07 -2.71095e+07
-2.34082e+07 -8.23131e+06 -3.09555e+07
4.41633e+07 -4.36827e+07 1.59408e+07
3.3366e+08 5.59763e+07 -8.97915e+08
-1.36628e+07 -9.06497e+07 5.70669e+08
-3.3666e+07 -7.98162e+07 8.18052e+08
-1.25374e+08 -4.61607e+07 8.64919e+08
2.12359e+06 -1.36497e+06 -3.48053e+08
7.17559e+07 2.92852e+07 -8.19571e+08
-1.33549e+08 -8.00775e+07 -8.78128e+08
3.35898e+07 1.7937e+07 4.11453e+06
2.86814e+07 1.72586e+07 -4.00699e+06
3.2856e+07 1.67703e+07 -4.68499e+06
1.75543e+07 -1.79458e+06 6.81888e+07
6.65456e+07 4.05043e+07 7.94202e+07
-2.17003e+07 4.57329e+06 9.43482e+07
-4.07e+07 1.77765e+07 -2.77756e+06
-3.71916e+07 -4.94008e+07 1.14194e+07
-1.30322e+06 -1.84045e+07 3.79781e+07
2.59329e+06 1.37466e+07 2.99758e+07
-2.82123e+07 -9.17698e+07 -2.3304e+07
1.15395e+08 -5.03633e+06 7.31318e+07
1.29017e+07 1.39782e+08 -4.35285e+07
-4.05616e+07 -4.27519e+07 -4.96976e+07
-3.99093e+07 4.27348e+07 5.03653e+07
4.82779e+06 3.6825e+07 -7.91696e+07
-63975 1.16005e+07 -2.48362e+08
0 0 0
0 0 0
0 0 0

VECTORS Contact_Forces float
0 0 0
0 0 0
0 0 0
0 0 0
0 0 0
0 0 0
0 0 0
0 0 0
0 0 0
0 0 0
0 0 0
0 0 0
0 0 0
0 0 0
0 0 0
0 0 0
0 0 0
0 0 0
0 0 0
0 0 0
0 0 0
0 0 0
0 0 0
0 0 0
0 0 0
0 0 0
0 0 0
0 0 0
0 0 0
0 0 0
0 0 0
0 0 0
0 0 0
0 0 0
0 0 0
0 0 0
0 0 0
0 0 0
0 0 0
0 0 0
0 0 0
0 0 0
0 0 0
0 0 0
0 0 0
0 0 0
0 0 0
0 0 0
0 0 0
0 0 0
0 0 0
0 0 0
0 0 0
0 0 0
0 0 0
0 0 0
0 0 0
0 0 0
0 0 0
0 0 0
0 0 0
0 0 0
0 0 0
0 0 0
0 0 0
0 0 0
0 0 0
0 0 0
0 0 0
0 0 0
0 0 0
0 0 0
0 0 0
0 0 0
0 0 0
0 0 0
0 0 0
0 0 0
0 0 0
0 0 0
0 0 0
0 0 0
0 0 0
0 0 0
0 0 0
0 0 0
0 0 0
0 0 0
0 0 0
0 0 0
0 0 0
0 0 0
0 0 0
0 0 0
0 0 0
0 0 0
0 0 0
0 0 0
0 0 0
0 0 0
0 0 0
0 0 0

VECTORS Contact_Pressure_/_Normal float
0 0 0
0 0 0
0 0 0
0 0 0
0 0 0
0 0 0
0 0 0
0 0 0
0 0 0
0 0 0
0 0 0
0 0 0
0 0 0
0 0 0
0 0 0
0 0 0
0 0 0
0 0 0
0 0 0
0 0 0
0 0 0
0 0 0
0 0 0
0 0 0
0 0 0
0 0 0
0 0 0
0 0 0
0 0 0
0 0 0
0 0 0
0 0 0
0 0 0
0 0 0
0 0 0
0 0 0
0 0 0
0 0 0
0 0 0
0 0 0
0 0 0
0 0 0
0 0 0
0 0 0
0 0 0
0 0 0
0 0 0
0 0 0
0 0 0
0 0 0
0 0 0
0 0 0
0 0 0
0 0 0
0 0 0
0 0 0
0 0 0
0 0 0
0 0 0
0 0 0
0 0 0
0 0 0
0 0 0
0 0 0
0 0 0
0 0 0
0 0 0
0 0 0
0 0 0
0 0 0
0 0 0
0 0 0
0 0 0
0 0 0
0 0 0
0 0 0
0 0 0
0 0 0
0 0 0
0 0 0
0 0 0
0 0 0
0 0 0
0 0 0
0 0 0
0 0 0
0 0 0
0 0 0
0 0 0
0 0 0
0 0 0
0 0 0
0 0 0
0 0 0
0 0 0
0 0 0
0 0 0
0 0 0
0 0 0
0 0 0
0 0 0
0 0 0

VECTORS Contact_Pressure_/_Tangent float
0 0 0
0 0 0
0 0 0
0 0 0
0 0 0
0 0 0
0 0 0
0 0 0
0 0 0
0 0 0
0 0 0
0 0 0
0 0 0
0 0 0
0 0 0
0 0 0
0 0 0
0 0 0
0 0 0
0 0 0
0 0 0
0 0 0
0 0 0
0 0 0
0 0 0
0 0 0
0 0 0
0 0 0
0 0 0
0 0 0
0 0 0
0 0 0
0 0 0
0 0 0
0 0 0
0 0 0
0 0 0
0 0 0
0 0 0
0 0 0
0 0 0
0 0 0
0 0 0
0 0 0
0 0 0
0 0 0
0 0 0
0 0 0
0 0 0
0 0 0
0 0 0
0 0 0
0 0 0
0 0 0
0 0 0
0 0 0
0 0 0
0 0 0
0 0 0
0 0 0
0 0 0
0 0 0
0 0 0
0 0 0
0 0 0
0 0 0
0 0 0
0 0 0
0 0 0
0 0 0
0 0 0
0 0 0
0 0 0
0 0 0
0 0 0
0 0 0
0 0 0
0 0 0
0 0 0
0 0 0
0 0 0
0 0 0
0 0 0
0 0 0
0 0 0
0 0 0
0 0 0
0 0 0
0 0 0
0 0 0
0 0 0
0 0 0
0 0 0
0 0 0
0 0 0
0 0 0
0 0 0
0 0 0
0 0 0
0 0 0
0 0 0
0 0 0

VECTORS Tied_Contact_Forces float
0 0 0
0 0 0
0 0 0
0 0 0
0 0 0
0 0 0
0 0 0
0 0 0
0 0 0
0 0 0
0 0 0
0 0 0
0 0 0
0 0 0
0 0 0
0 0 0
0 0 0
0 0 0
0 0 0
0 0 0
0 0 0
0 0 0
0 0 0
0 0 0
0 0 0
0 0 0
0 0 0
0 0 0
0 0 0
0 0 0
0 0 0
0 0 0
0 0 0
0 0 0
0 0 0
0 0 0
0 0 0
0 0 0
0 0 0
0 0 0
0 0 0
0 0 0
0 0 0
0 0 0
0 0 0
0 0 0
0 0 0
0 0 0
0 0 0
0 0 0
0 0 0
0 0 0
0 0 0
0 0 0
0 0 0
0 0 0
0 0 0
0 0 0
0 0 0
0 0 0
0 0 0
0 0 0
0 0 0
0 0 0
0 0 0
0 0 0
0 0 0
0 0 0
0 0 0
0 0 0
0 0 0
0 0 0
0 0 0
0 0 0
0 0 0
0 0 0
0 0 0
0 0 0
0 0 0
0 0 0
0 0 0
0 0 0
0 0 0
0 0 0
0 0 0
0 0 0
0 0 0
0 0 0
0 0 0
0 0 0
0 0 0
0 0 0
0 0 0
0 0 0
0 0 0
0 0 0
0 0 0
0 0 0
0 0 0
0 0 0
0 0 0
0 0 0

CELL_DATA 47
SCALARS ELEMENT_ID int 1
LOOKUP_TABLE default
0
0
0
0
0
0
0
0
0
0
0
0
1
2
3
4
5
6
7
8
9
10
11
12
13
14
15
16
17
18
19
20
21
22
23
24
25
26
27
28
29
30
31
32
33
34
35

SCALARS PART_ID int 1
LOOKUP_TABLE default
36
36
36
36
36
36
37
37
37
37
37
37
1
1
1
1
1
1
1
1
1
1
1
1
1
1
1
1
1
1
1
1
1
1
1
1
1
1
1
1
1
1
1
1
1
1
1

SCALARS EROSION_STATUS int 1
LOOKUP_TABLE default
1
1
1
1
1
1
1
1
1
1
1
1
1
1
1
1
1
1
1
1
1
1
1
1
1
1
1
1
1
1
1
1
1
1
1
1
1
1
1
1
1
1
1
1
1
1
1

SCALARS 1DELEM_Plastic_Strain float 1
LOOKUP_TABLE default
0
0
0
0
0
0
0
0
0
0
0
0
0
0
0
0
0
0
0
0
0
0
0
0
0
0
0
0
0
0
0
0
0
0
0
0
0
0
0
0
0
0
0
0
0
0
0

SCALARS 1DELEM_Specific_Energy float 1
LOOKUP_TABLE default
0
0
0
0
0
0
0
0
0
0
0
0
0
0
0
0
0
0
0
0
0
0
0
0
0
0
0
0
0
0
0
0
0
0
0
0
0
0
0
0
0
0
0
0
0
0
0

SCALARS 1DELEM_Von_Mises float 1
LOOKUP_TABLE default
0
0
0
0
0
0
0
0
0
0
0
0
0
0
0
0
0
0
0
0
0
0
0
0
0
0
0
0
0
0
0
0
0
0
0
0
0
0
0
0
0
0
0
0
0
0
0

SCALARS 3DELEM_Plastic_Strain float 1
LOOKUP_TABLE default
0
0
0
0
0
0
0
0
0
0
0
0
0
0
0
0
0
0
0
0
0
0
0
0
0
0
0
0
0
0
0
0
0
0
0
0
0
0
0
0
0
0
0
0
0
0
0

SCALARS 3DELEM_Specific_Energy float 1
LOOKUP_TABLE default
0
0
0
0
0
0
0
0
0
0
0
0
9.82491e+07
8.43545e+07
9.18676e+07
8.09103e+07
9.88801e+07
1.1217e+08
1.29219e+08
1.18454e+08
9.55848e+07
1.20068e+08
1.06416e+08
1.0769e+08
8.49165e+07
9.16562e+07
1.1601e+08
8.86895e+07
1.2275e+08
1.08499e+08
1.22177e+08
1.58745e+08
1.19544e+08
9.92486e+07
9.63021e+07
1.06101e+08
1.04247e+08
1.42812e+08
1.12074e+08
1.3156e+08
1.48004e+08
9.20861e+07
1.0747e+08
1.14011e+08
8.59907e+07
1.07668e+08
8.14548e+07

SCALARS 3DELEM_Von_Mises float 1
LOOKUP_TABLE default
0
0
0
0
0
0
0
0
0
0
0
0
397.31
373.378
372.433
341.313
298.281
424.552
526.489
420.193
396.939
419.102
400.122
435.912
327.506
304.566
393.89
360.452
417.2
456.108
471.931
431.965
417.409
371.764
344.054
374.71
398.045
481.375
454.401
447.752
489.952
306.294
445.056
470.289
308.966
412.943
352.25

TENSORS 3DELEM_Stress float
0 0 0 
0 0 0 
0 0 0 
0 0 0 
0 0 0 
0 0 0 
0 0 0 
0 0 0 
0 0 0 
0 0 0 
0 0 0 
0 0 0 
0 0 0 
0 0 0 
0 0 0 
0 0 0 
0 0 0 
0 0 0 
0 0 0 
0 0 0 
0 0 0 
0 0 0 
0 0 0 
0 0 0 
0 0 0 
0 0 0 
0 0 0 
0 0 0 
0 0 0 
0 0 0 
0 0 0 
0 0 0 
0 0 0 
0 0 0 
0 0 0 
0 0 0 
43.1075 -14.5135 9.16407
-14.5135 33.7572 -36.9484
9.16407 -36.9484 429.341
33.7077 -2.40503 12.2658
-2.40503 -24.1611 -27.0606
12.2658 -27.0606 371.153
48.7157 -4.88692 -2.27539
-4.88692 -23.5094 2.5549
-2.27539 2.5549 379.601
76.4419 -20.5598 -17.9003
-20.5598 31.8807 -10.301
-17.9003 -10.301 389.508
83.1678 4.92702 -22.9255
4.92702 83.3633 -39.7002
-22.9255 -39.7002 370.657
-3.21142 19.9696 26.3967
19.9696 -9.45674 -19.2723
26.3967 -19.2723 412.968
-7.49114 -21.7601 -2.4702
-21.7601 25.6747 41.715
-2.4702 41.715 528.424
18.2312 2.17504 -2.49455
2.17504 -23.5274 -13.825
-2.49455 -13.825 415.262
-0.12436 -12.6003 14.2871
-12.6003 -5.9652 -4.5948
14.2871 -4.5948 392.408
21.1216 -30.6274 18.8878
-30.6274 22.8652 -30.0613
18.8878 -30.0613 433.149
136.437 11.3553 -103.311
11.3553 116.199 16.7236
-103.311 16.7236 482.049
38.2136 11.2057 7.11089
11.2057 54.6806 1.76889
7.11089 1.76889 481.509
72.4877 -0.140645 -23.7094
-0.140645 23.0991 18.6109
-23.7094 18.6109 368.27
96.4169 4.38285 -29.0073
4.38285 89.4256 -5.26451
-29.0073 -5.26451 393.019
8.81756 24.9725 -19.9729
24.9725 -4.93728 -7.82172
-19.9729 -7.82172 391.499
46.1412 -23.4802 5.16667
-23.4802 44.1098 -6.93319
5.16667 -6.93319 402.958
49.2195 10.6347 -55.5201
10.6347 -39.1684 -17.7024
-55.5201 -17.7024 402.102
33.6341 5.72613 25.3595
5.72613 47.5128 -35.9139
25.3595 -35.9139 490.009
5.51029 -10.5534 -43.6808
-10.5534 -3.10717 9.50566
-43.6808 9.50566 466.319
40.1551 -5.85963 -11.2275
-5.85963 -27.3915 15.0646
-11.2275 15.0646 433.008
5.09006 36.3883 11.9243
36.3883 29.7815 15.5235
11.9243 15.5235 428.108
49.4649 -11.5215 -7.68596
-11.5215 1.68337 0.555486
-7.68596 0.555486 394.247
63.1139 -28.0679 -17.0191
-28.0679 51.138 -13.5147
-17.0191 -13.5147 395.483
124.134 -10.8011 17.1144
-10.8011 106.043 -38.5757
17.1144 -38.5757 481.789
108.685 4.88575 -14.7648
4.88575 105.085 20.3107
-14.7648 20.3107 502.444
30.2099 -32.6897 -1.7917
-32.6897 68.9837 57.2079
-1.7917 57.2079 516.031
15.684 -15.6699 -11.0322
-15.6699 -2.44119 27.4025
-11.0322 27.4025 457.043
-12.2561 35.4467 -19.9032
35.4467 4.25721 -29.5642
-19.9032 -29.5642 434.974
6.10119 7.75502 24.8681
7.75502 39.0258 56.7504
24.8681 56.7504 499.577
82.435 -10.8974 28.2239
-10.8974 99.6514 65.0642
28.2239 65.0642 370.592
-49.3378 11.4171 -11.5659
11.4171 -24.8038 0.593147
-11.5659 0.593147 406.584
-24.555 -13.8209 41.0668
-13.8209 8.50343 -19.0162
41.0668 -19.0162 454.181
98.2926 -10.0167 42.9367
-10.0167 88.102 49.2456
42.9367 49.2456 380.034
9.13452 13.2814 21.9411
13.2814 22.3452 24.2093
21.9411 24.2093 423.979
105.675 -9.48429 -14.6866
-9.48429 86.1993 -42.8382
-14.6866 -42.8382 438.535

