# vtk DataFile Version 3.0
vtk output
ASCII
DATASET UNSTRUCTURED_GRID
FIELD FieldData 2
TIME 1 1 double
0.00500014
CYCLE 1 1 int
0
POINTS 102 float
0.608062 -4.99699 8.03061
-0.0234296 5.00041 -0.0867042
-0.547731 4.98414 8.0445
9.99657 5.00168 -0.0960914
0.455263 -4.99187 19.051
-0.02 5 30
9.99098 4.99921 20.9098
-0.274377 5.00314 18.8876
-9.9902 -4.99094 20.7625
0.02 -5 30
-10 5 30
-10 -5 30
10.0022 5.00779 9.55737
9.99783 -4.99832 -0.101491
9.99578 -4.99391 14.9208
-9.98324 4.99703 14.9272
-9.99429 -4.99496 9.16247
10 -5 30
-10.0034 4.99914 -0.0773544
-10.0022 -5.00086 -0.0827543
0.0178365 -4.99959 -0.0921415
10 5 30
0.316982 -4.99871 3.96728
-4.69455 -4.99685 3.96761
-4.99216 -5.00022 -0.0874479
-9.99005 -4.99333 25.3814
-4.98334 -4.99356 25.3816
-4.99 -5 30
5.01 -5 30
0.240936 -4.9929 24.5256
5.22858 -4.99334 24.5229
9.99648 -4.99318 22.4598
5.2258 -4.99405 16.9823
-4.76341 -4.99171 19.9079
10.0047 -4.98628 7.40823
5.30778 -4.99398 11.4673
5.30635 -4.99171 3.96271
5.00783 -4.99895 -0.0968164
0.536352 -4.99581 13.5361
-9.99426 -5.00176 4.53953
-4.69229 -4.99553 8.58627
-9.97812 -4.99964 14.959
-4.75739 -4.99654 14.0935
9.99525 5.00508 4.7318
9.99851 0.00704005 4.73027
9.9972 0.00168074 -0.0987914
9.99533 0.00218297 17.9146
9.9962 0.00244145 25.4553
9.9968 0.00511406 12.2424
9.9921 4.99874 15.2355
10 0 30
9.99484 4.99715 25.4571
-0.285869 4.9919 3.97855
4.72188 4.99824 3.97782
4.98657 5.00104 -0.0913978
4.98987 4.99827 25.457
4.99 5 30
-5.01 5 30
-0.150501 4.99813 24.4442
-5.13869 4.99496 24.4431
-9.98955 4.99221 22.458
-5.12977 4.99992 16.9077
4.85719 4.99733 19.8988
-9.9972 4.98979 7.42084
-5.26986 4.99799 11.485
-5.27543 4.99458 3.98789
-5.01343 4.99977 -0.0820293
-0.415876 4.99709 13.4665
4.72337 4.99778 8.80738
4.85552 4.99362 14.2241
-9.99577 -0.00451958 4.53341
-10.0028 -0.000861709 -0.0800543
-9.98192 -0.00185229 17.8384
-9.9902 0.00142377 25.3799
-9.98373 -0.000898537 12.0438
-10 0 30
-5.01279 -0.000227367 -0.0847292
-0.00279656 0.000409518 -0.0894229
5.0072 0.0010464 -0.0941165
0 0 30
-5.01 0 30
5.01 0 30
5.30407 0.00263253 3.96021
0.295541 -0.00422823 3.96446
0.0319757 -0.00503472 8.03799
0.0900248 0.00421384 18.9662
0.221757 0.00329927 24.5237
5.2266 0.00100773 19.978
-5.00353 0.00135931 25.3813
-5.13137 0.00151207 19.8232
5.01144 0.00212158 25.4563
5.30671 0.00409536 8.78915
0.165042 0.00130267 13.4524
-4.75829 0.00166519 16.9834
-5.27525 -0.0023749 3.98464
-4.6872 0.00174784 11.4714
5.22749 0.000420351 14.3016
-5.27088 6.62967e-05 8.60096
-0.00279656 0.000409518 -0.0894229
0 0 0
0 0 30
0 0 30

CELLS 47 211
2 98 19
2 98 13
2 98 3
2 98 18
2 98 20
2 98 1
2 100 11
2 100 17
2 100 21
2 100 10
2 100 9
2 100 5
4 0 1 2 3
4 4 5 6 7
4 4 5 7 8
4 4 5 6 9
4 5 8 10 11
4 0 12 13 14
4 0 2 7 12
4 4 8 15 16
4 7 8 10 15
4 4 6 14 17
4 1 2 18 19
4 0 1 2 19
4 4 5 8 9
4 5 8 9 11
4 0 4 15 16
4 5 7 8 10
4 0 4 7 15
4 0 3 12 13
4 0 4 7 12
4 4 7 8 15
4 0 2 15 16
4 4 6 7 12
4 4 6 9 17
4 0 3 13 20
4 0 1 19 20
4 2 16 18 19
4 4 6 12 14
4 0 2 7 15
4 0 2 16 19
4 6 9 17 21
4 0 4 12 14
4 0 2 3 12
4 5 6 9 21
4 2 15 16 18
4 0 1 3 20

CELL_TYPES 47
3
3
3
3
3
3
3
3
3
3
3
3
10
10
10
10
10
10
10
10
10
10
10
10
10
10
10
10
10
10
10
10
10
10
10
10
10
10
10
10
10
10
10
10
10
10
10

POINT_DATA 102
SCALARS NODE_ID int 1
LOOKUP_TABLE default
20
18
22
6
19
16
15
21
10
11
7
2
14
4
12
17
9
3
8
1
13
5
23
24
25
26
27
28
29
30
31
32
33
34
35
36
37
38
39
40
41
42
43
44
45
46
47
48
49
50
51
52
53
54
55
56
57
58
59
60
61
62
63
64
65
66
67
68
69
70
71
72
73
74
75
76
77
78
79
80
81
82
83
84
85
86
87
88
89
90
91
92
93
94
95
96
97
98
99
100
101
102

SCALARS Time_Step float 1
LOOKUP_TABLE default
1.00028e-06
1.47838e+07
1.00048e-06
1.51395e+07
1.00079e-06
2.09559e+07
1.00057e-06
1.00055e-06
1.00058e-06
1.77935e+07
1.35445e+07
9.84791e+06
1.00045e-06
1.28134e+07
1.00069e-06
1.00046e-06
1.0007e-06
1.34359e+07
1.27647e+07
1.5174e+07
1.13089e+07
9.76738e+06
1.00036e-06
1.00063e-06
1.00086e-06
1.00106e-06
1.00078e-06
1.00166e-06
1.00096e-06
1.00137e-06
1.00132e-06
1.00129e-06
1.00081e-06
1.0009e-06
1.00064e-06
1.00068e-06
1.00066e-06
1.00169e-06
1.00123e-06
1.00085e-06
1.00094e-06
1.00183e-06
1.00159e-06
1.00039e-06
1.00069e-06
1.00073e-06
1.00072e-06
1.00093e-06
1.00063e-06
1.00098e-06
1.0011e-06
1.00066e-06
1.00092e-06
1.00155e-06
1.00092e-06
1.00055e-06
1.0008e-06
1.00055e-06
1.00119e-06
1.00128e-06
1.00139e-06
1.00046e-06
1.00131e-06
1.00106e-06
1.0007e-06
1.0008e-06
1.00068e-06
1.00058e-06
1.00074e-06
1.00073e-06
1.0011e-06
1.00078e-06
1.00101e-06
1.00076e-06
1.00076e-06
1.00112e-06
1.00061e-06
1.0005e-06
1.00079e-06
1.00055e-06
1.00106e-06
1.00066e-06
1.00064e-06
1.00054e-06
1.00059e-06
1.00058e-06
1.00124e-06
1.00108e-06
1.00065e-06
1.00061e-06
1.00057e-06
1.00044e-06
1.0006e-06
1.00074e-06
1.00056e-06
1.00067e-06
1.00099e-06
1.00101e-06
1.00033e-06
1e+06
1.00042e-06
1e+06

SCALARS Mass_Change float 1
LOOKUP_TABLE default
2.2422
0
2.30027
0
2.01901
0
1.68804
2.04981
2.05601
0
0
0
1.65365
0
1.21511
2.53445
2.3947
0
0
0
0
0
2.31431
2.26565
2.61505
1.57571
1.35447
1.57575
2.23139
2.32331
1.67151
0.876327
1.3781
2.52078
0.804042
1.19955
1.88587
2.06013
2.06006
2.45949
3.57507
0.751165
1.29388
2.27066
1.82733
2.77493
1.23034
1.66369
1.35351
1.36066
1.64855
1.64506
2.48718
1.83623
2.41868
1.95553
1.64466
2.22981
1.67708
1.6695
0.829841
2.71296
1.07589
0.784109
2.84691
1.8988
2.05224
1.20458
1.17278
1.61888
1.8458
2.83722
2.70845
1.64311
2.36837
1.5791
2.50446
2.44585
2.16814
1.88685
1.57571
1.64506
2.28567
2.57106
2.49283
2.50328
1.62474
1.70208
1.65405
2.86202
2.33662
1.75369
1.76339
2.91874
2.45514
3.03041
1.80187
3.07308
2.24947
0
1.76722
0

VECTORS Velocity float
63.9777 708.861 -529.657
549.629 224.211 -657.838
-933.71 1303.71 576.775
550.449 288.01 187.444
-481.73 835.686 455.01
0 0 0
-918.085 -1381.57 -432.278
-515.588 83.169 -380.214
-1306.56 265.335 -719.036
0 0 0
0 0 0
0 0 0
-701.87 -987.726 -571.98
614.921 287.829 525.216
-360.982 -302.917 865.872
-387.852 -559.536 -698.807
-1092.97 -2662.28 -1790.24
0 0 0
548.813 160.666 -1499.75
613.285 160.486 -1161.97
614.104 224.285 -316.691
0 0 0
264.475 303.951 -557.69
591.084 -161.348 -590.607
613.694 192.386 -739.332
-399.877 221.725 -81.6407
-506.66 128.751 -88.265
0 0 0
0 0 0
-601.017 139.585 17.7948
-619.591 -247.695 285.184
-589.177 -263.843 342.196
-694.653 -266.008 254.575
-1181.06 39.2755 -456.26
-678.38 -443.294 121.203
-501.402 -331.108 45.1328
65.8635 165.072 -260.792
614.513 256.057 104.263
-304.019 203.972 -83.4518
267.296 -62.8164 -1414.21
-36.7096 -338.882 -450.124
-1055.68 587.979 -1070.55
-773.148 417.399 -347.496
-205.101 277.634 179.45
-212.94 -62.7223 420.197
582.685 287.92 356.33
-361.584 -720.123 -83.5026
-355.479 -358.537 -21.8271
-427.277 -562.528 -41.2608
-47.7518 -650.387 -408.104
0 0 0
-351.316 -393.998 -385.007
38.5291 137.606 -153
-135.022 -45.6381 -19.4941
550.039 256.11 -235.197
-494.924 -110.608 -66.9985
0 0 0
0 0 0
-387.474 -112.885 -247.129
-274.692 24.8901 -213.149
-582.215 269.121 372.385
-916.057 -132.693 -292.567
-350.458 -274.782 -133.01
773.817 560.738 -925.172
-123.356 -0.421443 209.68
473.233 -8.89131 -1206.2
549.221 192.439 -1078.79
-184.774 -194.356 92.6032
-550.393 11.4953 109.17
221.694 -199.184 70.8427
1137.32 452.512 -928.723
581.049 160.576 -1330.86
-931.876 435.407 -631.833
-292.84 98.3991 60.3907
-560.767 -652.124 -2151.15
0 0 0
581.457 192.349 -909.906
581.867 224.248 -487.265
582.276 256.147 -64.6235
0 0 0
0 0 0
0 0 0
-31.9176 6.1974 106.498
199.496 134.772 -375.703
-397.998 804.409 -214.296
-773.303 240.204 -96.6298
-496.453 48.1903 -60.5545
-380.32 -210.084 30.8623
-361.498 -8.20502 -170.258
-1048.38 106.469 -338.644
-435.338 -100.472 159.156
-604.36 -195.149 -18.2337
-470.303 -73.9504 22.2536
-1144.9 113.295 -427.29
747.088 -50.644 -755.405
-284.361 29.6195 -568.244
-410.537 -428.826 122.834
137.068 22.69 -657.329
581.867 224.248 -487.265
0 0 0
0 0 0
0 0 0

VECTORS Displacement float
0.00183723 0.00301261 -0.0609688
-0.00342963 0.000406206 -0.0867042
0.00660255 -0.0158627 -0.0794379
-0.00343411 0.00167998 -0.0960914
0.0015135 0.00813073 -0.0298319
0 0 0
-0.00901468 -0.000789154 -0.0301872
0.0134112 0.00314365 -0.0352277
0.00979749 0.00906329 -0.0275402
0 0 0
0 0 0
0 0 0
0.00219193 0.00779047 -0.0726323
-0.00216794 0.00168151 -0.101491
-0.00421915 0.00608967 -0.0491817
0.0167566 -0.00296807 -0.0428102
0.00570776 0.00504181 -0.0475344
0 0 0
-0.00342517 -0.000862478 -0.0773544
-0.002159 -0.00086094 -0.0827543
-0.00216348 0.000412829 -0.0921415
0 0 0
0.00386947 0.00129136 -0.0785071
0.00233514 0.00314738 -0.0781824
-0.00216124 -0.000224055 -0.0874479
0.00995375 0.00666539 -0.013609
0.00665869 0.00643662 -0.0134353
0 0 0
0 0 0
0.00406114 0.00709761 -0.0147706
0.00170739 0.00666424 -0.017518
-0.00351898 0.00681877 -0.0251839
-0.0010754 0.00594699 -0.0431372
0.00971833 0.00829458 -0.0274597
0.00467177 0.0137228 -0.0767732
0.00466914 0.00601895 -0.063505
0.00324158 0.00829184 -0.0830774
-0.00216571 0.00104717 -0.0968164
0.00636507 0.00418597 -0.0500784
0.00574272 -0.00176267 -0.0654679
0.00459709 0.00447333 -0.0645226
0.0218758 0.00036389 -0.0410304
0.0157371 0.00345651 -0.0519168
-0.00474959 0.00507923 -0.083202
-0.0014932 0.00704005 -0.0847279
-0.00280103 0.00168074 -0.0987914
-0.00467263 0.00218297 -0.0404396
-0.00379658 0.00244145 -0.0147407
-0.00319982 0.00511406 -0.0575869
-0.00789792 -0.00125605 -0.0495075
0 0 0
-0.00516299 -0.00284947 -0.0128555
0.00129724 -0.00809505 -0.0834223
-0.000948415 -0.00175785 -0.0841522
-0.00343187 0.00104309 -0.0913978
-0.000133452 -0.00173064 -0.0130003
0 0 0
0 0 0
0.00339353 -0.00187461 -0.0171831
0.00520165 -0.0050383 -0.0183618
0.0104513 -0.00779376 -0.0270444
0.0141266 -8.16438e-05 -0.0387047
0.00108545 -0.00267096 -0.0326622
0.00280355 -0.0102082 -0.0641594
0.00730221 -0.00201146 -0.061963
0.00173162 -0.00541681 -0.0740788
-0.0034274 -0.000228136 -0.0820293
0.00518482 -0.00290658 -0.0568579
0.000540231 -0.00222394 -0.0695954
-0.000582436 -0.00637723 -0.0523449
0.00423185 -0.00451958 -0.0715899
-0.00279209 -0.000861709 -0.0800543
0.0180773 -0.00185229 -0.0416468
0.00980005 0.00142377 -0.0150623
0.0162694 -0.000898537 -0.046172
0 0 0
-0.00279432 -0.000227367 -0.0847292
-0.00279656 0.000409518 -0.0894229
-0.0027988 0.0010464 -0.0941165
0 0 0
0 0 0
0 0 0
0.000961451 0.00263253 -0.0855833
0.00242856 -0.00422823 -0.0813309
0.00602989 -0.00503472 -0.0697721
0.00704424 0.00421384 -0.0355712
0.00488187 0.00329927 -0.0166419
-0.000279217 0.00100773 -0.0323595
0.00646881 0.00135931 -0.0136835
0.0125206 0.00151207 -0.0332344
0.00144381 0.00212158 -0.0136662
0.00359418 0.00409536 -0.0716387
0.00582411 0.00130267 -0.0548344
0.0148369 0.00166519 -0.0419598
0.00191823 -0.0023749 -0.0773277
0.00968318 0.00174784 -0.0594079
0.000613846 0.000420351 -0.0537773
0.00628777 6.62967e-05 -0.0660062
-0.00279656 0.000409518 -0.0894229
0 0 0
0 0 0
0 0 0

VECTORS Acceleration float
-4.50652e+07 -4.99091e+07 2.70524e+08
5.35531e+07 -3.91299e+06 4.74029e+08
-1.18546e+08 2.85857e+08 7.09755e+08
5.36556e+07 1.53171e+06 6.81773e+08
-6.95714e+07 -1.0262e+08 1.84759e+08
0 0 0
4.0324e+07 -6.68519e+07 1.83575e+08
-2.90861e+08 -1.4314e+08 2.63499e+08
-7.66395e+07 -1.04269e+08 1.24628e+08
0 0 0
0 0 0
0 0 0
-2.18495e+08 -2.12545e+08 6.41217e+08
5.9216e+07 1.49687e+06 7.76308e+08
-5.05431e+07 -1.35392e+08 3.64799e+08
-2.21189e+08 -2.04344e+07 3.51132e+08
9.30863e+06 -5.86121e+07 -6.42604e+06
0 0 0
5.3451e+07 -9.33596e+06 2.67115e+08
5.90114e+07 -9.3708e+06 3.61649e+08
5.91139e+07 -3.9261e+06 5.69393e+08
0 0 0
-1.15713e+08 4.11321e+07 2.68689e+07
518626 -1.43337e+07 1.20542e+08
1.4374e+08 1.8144e+08 9.32607e+08
-9.28004e+07 -1.7637e+07 2.7511e+07
-7.73591e+07 -4.62935e+07 3.20164e+07
2.73919e+08 5.64293e+08 -1.7904e+09
7.322e+07 1.23797e+08 -6.49629e+08
-4.66186e+07 -4.08341e+07 2.14882e+07
-3.1989e+07 -3.16011e+07 4.70324e+07
7.33808e+06 -2.3858e+07 -4.54321e+06
2.02702e+07 -2.26638e+07 8.71489e+07
-1.07358e+08 -1.88714e+07 -3.43422e+07
-2.60487e+08 -2.15653e+08 6.12266e+07
-1.22133e+08 -1.22112e+07 1.91165e+08
-1.61116e+08 -1.47389e+08 3.46188e+07
1.3517e+08 5.89797e+08 1.71384e+09
-1.04824e+08 3.4585e+07 1.00851e+08
-3.29143e+07 1.09724e+08 9.99306e+06
-3.37834e+07 3.98263e+07 2.34697e+08
-3.27201e+08 1.60382e+08 6.64026e+07
-2.45028e+08 6.27578e+07 2.86491e+08
5.68013e+07 -7.78699e+07 -3.41655e+07
-1.95261e+07 -8.37592e+07 -4.98045e+07
-8.97298e+07 -2.7859e+07 4.84866e+08
-2.13906e+07 3.15035e+07 3.32963e+07
-1.87559e+07 -3.87139e+07 5.65782e+07
7.6e+07 5.11844e+07 -8.87367e+07
1.31931e+08 1.07445e+08 -5.30988e+07
-3.67851e+08 6.95942e+07 -1.71092e+09
-1.43035e+07 6.14869e+07 -3.39453e+07
1.07849e+07 -2.63862e+07 1.72481e+07
1.76948e+07 -1.90471e+08 -7.33196e+07
2.78748e+06 -2.98024e+07 5.37422e+08
-6.82934e+07 -2.32167e+07 -8.45434e+06
8.91879e+07 -3.81957e+08 -1.53985e+09
5.0959e+07 -2.07123e+08 -5.62796e+08
8.97493e+07 4.27167e+07 2.75154e+07
1.08953e+08 7.8331e+07 1.70645e+07
7.60548e+07 1.27315e+08 4.88528e+07
4.97695e+07 -3.35231e+07 -5.45877e+07
1.65649e+07 3.50801e+07 1.72516e+07
1.97502e+08 2.06325e+08 7.40823e+07
1.12439e+08 -1.66457e+08 -4.97194e+06
3.64911e+07 -5.76362e+07 -1.139e+08
-6.59296e+07 -2.21529e+08 1.20621e+09
1.28315e+08 -9.32946e+07 -1.58745e+07
1.04798e+08 -9.0856e+07 -1.68757e+08
2.29155e+08 2.23133e+08 -5.98861e+07
5.22574e+06 1.4084e+08 2.60074e+08
2.2368e+08 -9.77145e+07 2.39853e+08
-8.85692e+07 9.70654e+07 1.22583e+08
-7.2191e+07 3.99908e+07 6.47073e+07
-1.37883e+08 6.79271e+07 -1.11163e+07
8.07989e+08 7.86823e+07 -2.08137e+09
-1.20053e+07 -768481 6.68942e+08
8.88167e+07 -1.53534e+08 7.45041e+08
7.1004e+07 -3.18217e+07 9.67489e+08
6.07563e+07 3.67716e+07 -5.77711e+08
2.86345e+08 9.61023e+07 -1.59636e+09
3.98112e+07 8.16892e+07 -1.50991e+09
-7.00157e+07 -5.70841e+07 1.41477e+08
-6.50247e+07 1.24852e+08 1.46639e+08
-5.22394e+07 -3.01516e+07 -3.29824e+07
1.40094e+07 9.5402e+06 4.5488e+07
-4.4343e+07 -3.22024e+07 5.91967e+07
-3.72449e+07 3.23989e+07 3.75579e+07
-5.10644e+07 -3.33822e+06 4.88307e+07
1.54953e+07 5.37856e+07 5.82408e+07
-6.1534e+07 -3.05183e+07 2.48431e+07
-2.15451e+07 -2.17925e+06 1.20997e+08
5.85748e+07 4.88623e+07 1.39536e+08
-9.87471e+07 2.24541e+06 1.35563e+07
2.96275e+07 -8.57284e+07 -9.86699e+07
-1.02735e+07 -9.61223e+06 8.75683e+07
6.71993e+07 7.72768e+07 3.04174e+07
-1.0258e+07 -1.24205e+08 5.01781e+07
5.63335e+07 -3.91955e+06 5.21711e+08
0 0 0
0 0 0
0 0 0

VECTORS Contact_Forces float
0 0 0
0 0 0
0 0 0
0 0 0
0 0 0
0 0 0
0 0 0
0 0 0
0 0 0
0 0 0
0 0 0
0 0 0
0 0 0
0 0 0
0 0 0
0 0 0
0 0 0
0 0 0
0 0 0
0 0 0
0 0 0
0 0 0
0 0 0
0 0 0
0 0 0
0 0 0
0 0 0
0 0 0
0 0 0
0 0 0
0 0 0
0 0 0
0 0 0
0 0 0
0 0 0
0 0 0
0 0 0
0 0 0
0 0 0
0 0 0
0 0 0
0 0 0
0 0 0
0 0 0
0 0 0
0 0 0
0 0 0
0 0 0
0 0 0
0 0 0
0 0 0
0 0 0
0 0 0
0 0 0
0 0 0
0 0 0
0 0 0
0 0 0
0 0 0
0 0 0
0 0 0
0 0 0
0 0 0
0 0 0
0 0 0
0 0 0
0 0 0
0 0 0
0 0 0
0 0 0
0 0 0
0 0 0
0 0 0
0 0 0
0 0 0
0 0 0
0 0 0
0 0 0
0 0 0
0 0 0
0 0 0
0 0 0
0 0 0
0 0 0
0 0 0
0 0 0
0 0 0
0 0 0
0 0 0
0 0 0
0 0 0
0 0 0
0 0 0
0 0 0
0 0 0
0 0 0
0 0 0
0 0 0
0 0 0
0 0 0
0 0 0
0 0 0

VECTORS Contact_Pressure_/_Normal float
0 0 0
0 0 0
0 0 0
0 0 0
0 0 0
0 0 0
0 0 0
0 0 0
0 0 0
0 0 0
0 0 0
0 0 0
0 0 0
0 0 0
0 0 0
0 0 0
0 0 0
0 0 0
0 0 0
0 0 0
0 0 0
0 0 0
0 0 0
0 0 0
0 0 0
0 0 0
0 0 0
0 0 0
0 0 0
0 0 0
0 0 0
0 0 0
0 0 0
0 0 0
0 0 0
0 0 0
0 0 0
0 0 0
0 0 0
0 0 0
0 0 0
0 0 0
0 0 0
0 0 0
0 0 0
0 0 0
0 0 0
0 0 0
0 0 0
0 0 0
0 0 0
0 0 0
0 0 0
0 0 0
0 0 0
0 0 0
0 0 0
0 0 0
0 0 0
0 0 0
0 0 0
0 0 0
0 0 0
0 0 0
0 0 0
0 0 0
0 0 0
0 0 0
0 0 0
0 0 0
0 0 0
0 0 0
0 0 0
0 0 0
0 0 0
0 0 0
0 0 0
0 0 0
0 0 0
0 0 0
0 0 0
0 0 0
0 0 0
0 0 0
0 0 0
0 0 0
0 0 0
0 0 0
0 0 0
0 0 0
0 0 0
0 0 0
0 0 0
0 0 0
0 0 0
0 0 0
0 0 0
0 0 0
0 0 0
0 0 0
0 0 0
0 0 0

VECTORS Contact_Pressure_/_Tangent float
0 0 0
0 0 0
0 0 0
0 0 0
0 0 0
0 0 0
0 0 0
0 0 0
0 0 0
0 0 0
0 0 0
0 0 0
0 0 0
0 0 0
0 0 0
0 0 0
0 0 0
0 0 0
0 0 0
0 0 0
0 0 0
0 0 0
0 0 0
0 0 0
0 0 0
0 0 0
0 0 0
0 0 0
0 0 0
0 0 0
0 0 0
0 0 0
0 0 0
0 0 0
0 0 0
0 0 0
0 0 0
0 0 0
0 0 0
0 0 0
0 0 0
0 0 0
0 0 0
0 0 0
0 0 0
0 0 0
0 0 0
0 0 0
0 0 0
0 0 0
0 0 0
0 0 0
0 0 0
0 0 0
0 0 0
0 0 0
0 0 0
0 0 0
0 0 0
0 0 0
0 0 0
0 0 0
0 0 0
0 0 0
0 0 0
0 0 0
0 0 0
0 0 0
0 0 0
0 0 0
0 0 0
0 0 0
0 0 0
0 0 0
0 0 0
0 0 0
0 0 0
0 0 0
0 0 0
0 0 0
0 0 0
0 0 0
0 0 0
0 0 0
0 0 0
0 0 0
0 0 0
0 0 0
0 0 0
0 0 0
0 0 0
0 0 0
0 0 0
0 0 0
0 0 0
0 0 0
0 0 0
0 0 0
0 0 0
0 0 0
0 0 0
0 0 0

VECTORS Tied_Contact_Forces float
0 0 0
0 0 0
0 0 0
0 0 0
0 0 0
0 0 0
0 0 0
0 0 0
0 0 0
0 0 0
0 0 0
0 0 0
0 0 0
0 0 0
0 0 0
0 0 0
0 0 0
0 0 0
0 0 0
0 0 0
0 0 0
0 0 0
0 0 0
0 0 0
0 0 0
0 0 0
0 0 0
0 0 0
0 0 0
0 0 0
0 0 0
0 0 0
0 0 0
0 0 0
0 0 0
0 0 0
0 0 0
0 0 0
0 0 0
0 0 0
0 0 0
0 0 0
0 0 0
0 0 0
0 0 0
0 0 0
0 0 0
0 0 0
0 0 0
0 0 0
0 0 0
0 0 0
0 0 0
0 0 0
0 0 0
0 0 0
0 0 0
0 0 0
0 0 0
0 0 0
0 0 0
0 0 0
0 0 0
0 0 0
0 0 0
0 0 0
0 0 0
0 0 0
0 0 0
0 0 0
0 0 0
0 0 0
0 0 0
0 0 0
0 0 0
0 0 0
0 0 0
0 0 0
0 0 0
0 0 0
0 0 0
0 0 0
0 0 0
0 0 0
0 0 0
0 0 0
0 0 0
0 0 0
0 0 0
0 0 0
0 0 0
0 0 0
0 0 0
0 0 0
0 0 0
0 0 0
0 0 0
0 0 0
0 0 0
0 0 0
0 0 0
0 0 0

CELL_DATA 47
SCALARS ELEMENT_ID int 1
LOOKUP_TABLE default
0
0
0
0
0
0
0
0
0
0
0
0
1
2
3
4
5
6
7
8
9
10
11
12
13
14
15
16
17
18
19
20
21
22
23
24
25
26
27
28
29
30
31
32
33
34
35

SCALARS PART_ID int 1
LOOKUP_TABLE default
36
36
36
36
36
36
37
37
37
37
37
37
1
1
1
1
1
1
1
1
1
1
1
1
1
1
1
1
1
1
1
1
1
1
1
1
1
1
1
1
1
1
1
1
1
1
1

SCALARS EROSION_STATUS int 1
LOOKUP_TABLE default
1
1
1
1
1
1
1
1
1
1
1
1
1
1
1
1
1
1
1
1
1
1
1
1
1
1
1
1
1
1
1
1
1
1
1
1
1
1
1
1
1
1
1
1
1
1
1

SCALARS 1DELEM_Plastic_Strain float 1
LOOKUP_TABLE default
0
0
0
0
0
0
0
0
0
0
0
0
0
0
0
0
0
0
0
0
0
0
0
0
0
0
0
0
0
0
0
0
0
0
0
0
0
0
0
0
0
0
0
0
0
0
0

SCALARS 1DELEM_Specific_Energy float 1
LOOKUP_TABLE default
0
0
0
0
0
0
0
0
0
0
0
0
0
0
0
0
0
0
0
0
0
0
0
0
0
0
0
0
0
0
0
0
0
0
0
0
0
0
0
0
0
0
0
0
0
0
0

SCALARS 1DELEM_Von_Mises float 1
LOOKUP_TABLE default
0
0
0
0
0
0
0
0
0
0
0
0
0
0
0
0
0
0
0
0
0
0
0
0
0
0
0
0
0
0
0
0
0
0
0
0
0
0
0
0
0
0
0
0
0
0
0

SCALARS 3DELEM_Plastic_Strain float 1
LOOKUP_TABLE default
0
0
0
0
0
0
0
0
0
0
0
0
0
0
0
0
0
0
0
0
0
0
0
0
0
0
0
0
0
0
0
0
0
0
0
0
0
0
0
0
0
0
0
0
0
0
0

SCALARS 3DELEM_Specific_Energy float 1
LOOKUP_TABLE default
0
0
0
0
0
0
0
0
0
0
0
0
1.3131e+08
1.95882e+08
2.05426e+08
1.72515e+08
2.058e+08
1.85635e+08
1.72571e+08
1.60228e+08
1.76839e+08
1.92755e+08
8.13799e+07
1.27232e+08
1.51653e+08
1.82186e+08
1.65892e+08
2.00882e+08
2.13007e+08
1.61173e+08
2.11793e+08
2.06519e+08
1.63904e+08
2.25364e+08
1.92243e+08
1.72515e+08
1.18212e+08
1.28478e+08
1.92272e+08
2.32999e+08
1.73847e+08
1.81265e+08
2.15006e+08
1.74953e+08
1.60241e+08
1.44773e+08
1.04204e+08

SCALARS 3DELEM_Von_Mises float 1
LOOKUP_TABLE default
0
0
0
0
0
0
0
0
0
0
0
0
487.566
729.974
746.912
651.401
629.617
644.488
635.716
562.717
669.77
713.467
332.199
486.919
595.604
599.544
613.371
714.539
716.445
595.67
723.342
673.744
536.153
803.531
674.689
544.674
417.908
436.935
721.834
734.348
563.812
602.311
740.015
629.412
556.877
535.059
421.59

TENSORS 3DELEM_Stress float
0 0 0 
0 0 0 
0 0 0 
0 0 0 
0 0 0 
0 0 0 
0 0 0 
0 0 0 
0 0 0 
0 0 0 
0 0 0 
0 0 0 
0 0 0 
0 0 0 
0 0 0 
0 0 0 
0 0 0 
0 0 0 
0 0 0 
0 0 0 
0 0 0 
0 0 0 
0 0 0 
0 0 0 
0 0 0 
0 0 0 
0 0 0 
0 0 0 
0 0 0 
0 0 0 
0 0 0 
0 0 0 
0 0 0 
0 0 0 
0 0 0 
0 0 0 
68.3341 79.4562 -40.1205
79.4562 18.9892 18.7921
-40.1205 18.7921 503.081
-0.248876 -32.0281 -1.3954
-32.0281 14.905 -20.1612
-1.3954 -20.1612 734.231
26.9282 40.0675 -55.5018
40.0675 -34.1882 -54.2888
-55.5018 -54.2888 725.874
81.0837 -23.2628 -26.9593
-23.2628 63.072 -26.4426
-26.9593 -26.4426 718.745
181.142 -1.76989 -36.6844
-1.76989 149.729 -133.635
-36.6844 -133.635 746.862
70.1623 13.0551 -18.3391
13.0551 -4.19609 -11.2188
-18.3391 -11.2188 672.764
2.53267 4.2558 13.3282
4.2558 -35.3743 -22.9019
13.3282 -22.9019 616.742
-57.7887 34.909 -13.9937
34.909 1.70034 -84.068
-13.9937 -84.068 509.125
32.2176 19.341 -3.23064
19.341 -49.8572 -53.9489
-3.23064 -53.9489 649.705
12.0091 6.05717 12.1825
6.05717 0.923343 5.3405
12.1825 5.3405 719.419
144.293 -23.6315 -26.471
-23.6315 101.511 -15.5886
-26.471 -15.5886 446.131
162.005 -39.4948 -49.1254
-39.4948 -13.8722 26.1374
-49.1254 26.1374 521.192
60.0228 19.2006 -55.5205
19.2006 0.196354 -57.3838
-55.5205 -57.3838 606.155
165.717 -3.48383 -71.4904
-3.48383 136.266 -115.53
-71.4904 -115.53 701.802
-119.757 -9.65641 -12.9423
-9.65641 36.6604 55.788
-12.9423 55.788 548.16
93.5798 -11.8147 11.8425
-11.8147 -17.4008 -61.3906
11.8425 -61.3906 737.505
-82.731 -9.13522 11.9028
-9.13522 77.6556 27.2378
11.9028 27.2378 698.247
65.3097 22.1062 50.1053
22.1062 37.0914 9.52333
50.1053 9.52333 638.53
-19.3446 -33.8234 -30.9074
-33.8234 -16.2513 -43.4308
-30.9074 -43.4308 697.227
-25.08 59.0533 -12.9615
59.0533 4.49723 -56.8833
-12.9615 -56.8833 647.433
44.5677 -24.5436 4.68843
-24.5436 -9.44047 -3.31819
4.68843 -3.31819 549.885
-115.072 1.95881 44.3307
1.95881 -48.8132 -4.53375
44.3307 -4.53375 715.805
54.642 -7.52515 -30.3239
-7.52515 45.8758 -33.672
-30.3239 -33.672 720.197
218.112 38.9906 86.5724
38.9906 135.546 17.531
86.5724 17.531 690.239
210.991 -26.9781 -13.1103
-26.9781 95.0642 56.6228
-13.1103 56.6228 543.22
70.3388 22.0567 -34.3407
22.0567 32.234 22.3496
-34.3407 22.3496 479.453
-4.87797 21.3991 -29.2361
21.3991 -14.3252 1.03623
-29.2361 1.03623 709.451
46.2708 -70.5961 21.1887
-70.5961 49.8079 15.5452
21.1887 15.5452 770.698
106.895 9.78941 15.6252
9.78941 -11.5426 -44.6119
15.6252 -44.6119 595.739
130.569 -8.59157 -25.9273
-8.59157 129.919 12.5104
-25.9273 12.5104 730.303
17.3577 14.0343 -29.1935
14.0343 17.5832 -91.5739
-29.1935 -91.5739 738.107
39.7766 75.9708 31.2586
75.9708 -0.435298 -6.56586
31.2586 -6.56586 631.693
131.752 -22.2749 1.90274
-22.2749 150.838 -10.6838
1.90274 -10.6838 696.27
67.0951 19.0927 14.2043
19.0927 -52.5681 -12.5048
14.2043 -12.5048 530.122
124.483 44.3141 -36.5714
44.3141 58.3446 18.9008
-36.5714 18.9008 495.744

