# vtk DataFile Version 3.0
vtk output
ASCII
DATASET UNSTRUCTURED_GRID
FIELD FieldData 2
TIME 1 1 double
0.00700074
CYCLE 1 1 int
0
POINTS 102 float
0.613507 -4.99597 8.04989
-0.0206011 5.00217 -0.0633374
-0.556783 4.99439 8.07782
9.9994 5.00204 -0.068681
0.449563 -4.99761 19.0684
-0.02 5 30
10.0047 5.00518 20.9057
-0.28444 5.00004 18.9007
-9.98707 -4.99623 20.7731
0.02 -5 30
-10 5 30
-10 -5 30
9.99704 5.00081 9.58707
9.99926 -4.99796 -0.0709282
9.99281 -4.99841 14.9295
-9.98988 4.99627 14.9444
-9.9782 -4.98415 9.16128
10 -5 30
-10.0006 5.0023 -0.0580152
-10.0007 -4.9977 -0.0602624
0.0192656 -4.99783 -0.065606
10 5 30
0.315457 -4.9957 3.99021
-4.69083 -4.99341 3.99101
-4.99073 -4.99777 -0.0629342
-9.99215 -4.9956 25.3856
-4.98344 -4.99408 25.3868
-4.99 -5 30
5.01 -5 30
0.241591 -4.99308 24.5321
5.23264 -4.99175 24.5281
10.0038 -4.9897 22.4676
5.22427 -4.99489 17.0008
-4.76883 -4.9948 19.9189
9.99358 -4.99799 7.43478
5.30023 -4.99619 11.4929
5.30217 -4.99767 3.98674
5.00926 -4.9979 -0.0682671
0.530069 -4.99683 13.5583
-9.98844 -4.99566 4.55081
-4.68475 -4.99262 8.60615
-9.99037 -4.99706 14.967
-4.76798 -4.99628 14.1144
9.99785 4.99518 4.75823
9.99427 -0.00260547 4.75829
9.99933 0.00203701 -0.0698046
9.99811 0.00153244 17.9255
9.9988 0.0055001 25.4611
9.99581 0.000505698 12.2589
9.99595 4.99771 15.2493
10 0 30
9.99887 5.00115 25.4575
-0.285213 4.9984 4.00686
4.724 4.99776 4.00435
4.9894 5.0021 -0.0660092
4.99327 5.00014 25.4598
4.99 5 30
-5.01 5 30
-0.149575 5.00184 24.4506
-5.13895 5.00014 24.4516
-9.99098 4.99909 22.4691
-5.13577 4.99805 16.9216
4.85749 5.00027 19.9076
-9.99009 5.0007 7.44125
-5.27052 4.99899 11.5118
-5.27439 5.00016 4.00783
-5.0106 5.00224 -0.0606763
-0.417215 4.99859 13.4888
4.72155 4.99728 8.82877
4.85534 4.99788 14.2416
-9.99268 0.00288841 4.55402
-10.0007 0.00230123 -0.0591388
-9.98965 -9.18766e-05 17.8563
-9.99271 0.00220955 25.3851
-9.99332 0.00381205 12.056
-10 0 30
-5.01067 0.00223531 -0.0617999
-0.000667763 0.00216912 -0.0644717
5.00933 0.00210293 -0.0671435
0 0 30
-5.01 0 30
5.01 0 30
5.30136 -0.000283205 3.98666
0.294987 0.00122789 3.98932
0.0275903 -0.000450609 8.06161
0.0860725 0.00175518 18.9809
0.221687 0.00537516 24.5301
5.22775 0.00350243 19.9889
-5.00459 0.00362457 25.3877
-5.13643 0.00171779 19.8364
5.01279 0.00411342 25.4609
5.30259 0.00186708 8.81429
0.16201 0.00109216 13.4731
-4.76542 0.00086631 16.9988
-5.27237 0.00423344 4.0077
-4.69195 0.00234799 11.4937
5.22617 0.000796692 14.321
-5.27151 0.00300296 8.62371
-0.000667763 0.00216912 -0.0644717
0 0 0
0 0 30
0 0 30

CELLS 47 211
2 98 19
2 98 13
2 98 3
2 98 18
2 98 20
2 98 1
2 100 11
2 100 17
2 100 21
2 100 10
2 100 9
2 100 5
4 0 1 2 3
4 4 5 6 7
4 4 5 7 8
4 4 5 6 9
4 5 8 10 11
4 0 12 13 14
4 0 2 7 12
4 4 8 15 16
4 7 8 10 15
4 4 6 14 17
4 1 2 18 19
4 0 1 2 19
4 4 5 8 9
4 5 8 9 11
4 0 4 15 16
4 5 7 8 10
4 0 4 7 15
4 0 3 12 13
4 0 4 7 12
4 4 7 8 15
4 0 2 15 16
4 4 6 7 12
4 4 6 9 17
4 0 3 13 20
4 0 1 19 20
4 2 16 18 19
4 4 6 12 14
4 0 2 7 15
4 0 2 16 19
4 6 9 17 21
4 0 4 12 14
4 0 2 3 12
4 5 6 9 21
4 2 15 16 18
4 0 1 3 20

CELL_TYPES 47
3
3
3
3
3
3
3
3
3
3
3
3
10
10
10
10
10
10
10
10
10
10
10
10
10
10
10
10
10
10
10
10
10
10
10
10
10
10
10
10
10
10
10
10
10
10
10

POINT_DATA 102
SCALARS NODE_ID int 1
LOOKUP_TABLE default
20
18
22
6
19
16
15
21
10
11
7
2
14
4
12
17
9
3
8
1
13
5
23
24
25
26
27
28
29
30
31
32
33
34
35
36
37
38
39
40
41
42
43
44
45
46
47
48
49
50
51
52
53
54
55
56
57
58
59
60
61
62
63
64
65
66
67
68
69
70
71
72
73
74
75
76
77
78
79
80
81
82
83
84
85
86
87
88
89
90
91
92
93
94
95
96
97
98
99
100
101
102

SCALARS Time_Step float 1
LOOKUP_TABLE default
1.00051e-06
1.47838e+07
1.0005e-06
1.51395e+07
1.00125e-06
2.09559e+07
1.00115e-06
1.00103e-06
1.00077e-06
1.77935e+07
1.35445e+07
9.84791e+06
1.00094e-06
1.28134e+07
1.0015e-06
1.00058e-06
1.00068e-06
1.34359e+07
1.27647e+07
1.5174e+07
1.13089e+07
9.76738e+06
1.00044e-06
1.00085e-06
1.00138e-06
1.00099e-06
1.00099e-06
1.00141e-06
1.00129e-06
1.00211e-06
1.00222e-06
1.00242e-06
1.00163e-06
1.00087e-06
1.00139e-06
1.00126e-06
1.00102e-06
1.00123e-06
1.00173e-06
1.00098e-06
1.00091e-06
1.00139e-06
1.00148e-06
1.00059e-06
1.00137e-06
1.00095e-06
1.00175e-06
1.0015e-06
1.00134e-06
1.00184e-06
1.00072e-06
1.00037e-06
1.00072e-06
1.00099e-06
1.00067e-06
1.00099e-06
1.00059e-06
1.00115e-06
1.00194e-06
1.00211e-06
1.00214e-06
1.00079e-06
1.00192e-06
1.00126e-06
1.00087e-06
1.00089e-06
1.00072e-06
1.00134e-06
1.00065e-06
1.00123e-06
1.00121e-06
1.00083e-06
1.00084e-06
1.0014e-06
1.00067e-06
1.00123e-06
1.00077e-06
1.00082e-06
1.00062e-06
1.00089e-06
1.00099e-06
1.00037e-06
1.00055e-06
1.00053e-06
1.00058e-06
1.0009e-06
1.00193e-06
1.00188e-06
1.00115e-06
1.00089e-06
1.00095e-06
1.00083e-06
1.00133e-06
1.00072e-06
1.00061e-06
1.001e-06
1.0016e-06
1.00101e-06
1.00041e-06
1e+06
1.00078e-06
1e+06

SCALARS Mass_Change float 1
LOOKUP_TABLE default
2.2422
0
2.30027
0
2.01901
0
1.68804
2.04981
2.05601
0
0
0
1.65365
0
1.21511
2.53445
2.3947
0
0
0
0
0
2.31431
2.26565
2.61505
1.57571
1.35447
1.57575
2.23139
2.32331
1.67151
0.876327
1.3781
2.52078
0.804042
1.19955
1.88587
2.06013
2.06006
2.45949
3.57507
0.751165
1.29388
2.27066
1.82733
2.77493
1.23034
1.66369
1.35351
1.36066
1.64855
1.64506
2.48718
1.83623
2.41868
1.95553
1.64466
2.22981
1.67708
1.6695
0.829841
2.71296
1.07589
0.784109
2.84691
1.8988
2.05224
1.20458
1.17278
1.61888
1.8458
2.83722
2.70845
1.64311
2.36837
1.5791
2.50446
2.44585
2.16814
1.88685
1.57571
1.64506
2.28567
2.57106
2.49283
2.50328
1.62474
1.70208
1.65405
2.86202
2.33662
1.75369
1.76339
2.91874
2.45514
3.03041
1.80187
3.07308
2.24947
0
1.76722
0

VECTORS Velocity float
623.759 -296.338 -1898.56
-650.121 -168.155 -2846.57
564.577 -180.306 -3732.39
-650.531 -335.936 -3678.04
242.599 -876.843 -2200.32
0 0 0
599.186 1025.05 -1049.47
605.041 1849.64 -1479.65
1819.78 663.748 -817.02
0 0 0
0 0 0
0 0 0
200.006 248.959 -2488.88
-818.378 -335.84 -4151.38
247.539 -213.836 -3521.9
724.292 1248.61 -2303.92
-475.718 485.964 -1488.98
0 0 0
-649.713 -1.04304 -2018.41
-817.56 -0.947052 -2491.76
-817.969 -168.729 -3323.23
0 0 0
-336.67 -267.383 -2800.19
-188.568 -91.4026 -2353.22
-817.765 -84.8378 -2907.49
887.476 656.588 -595.528
739.825 674.498 -671.07
0 0 0
0 0 0
369.598 787.173 -983.229
52.8611 944.563 -734.536
-124.791 738.224 -1036.37
691.03 28.0912 -1967.06
966.362 301.811 -1686.21
-235.675 212.533 -3659.42
447.908 448.303 -2502.77
-720.179 -390.188 -3331.35
-818.173 -252.285 -3737.31
481.816 16.5784 -1941.14
-189.873 -120.558 -1786.85
13.87 108.402 -1863.48
535.843 1367.21 -1247.92
244.061 730.073 -1909.09
-234.915 -422.42 -3463.44
-486.887 -301.364 -3984.25
-734.454 -335.888 -3914.71
331.976 103.718 -1644.04
-105.029 641.497 -489.949
120.186 131.292 -2941.29
791.95 -419.433 -1793.66
0 0 0
-200.349 259.852 -277.478
-102.263 -435.776 -3181.26
-223.778 -234.913 -3398.57
-650.326 -252.046 -3262.3
206.11 178.426 -732.052
0 0 0
0 0 0
559.591 578.771 -981.638
868.095 273.117 -462.715
1728.29 732.744 -1189.27
1285.47 530.682 -2025.36
422.186 391.471 -1861.5
663.739 207.992 -2099.54
1156.69 141.577 -2744.46
-13.1993 -30.821 -2569.15
-649.917 -84.5989 -2432.49
841.412 90.9571 -2867.76
195.56 -120.574 -3203.76
353.846 -273.275 -2462.69
58.7779 -97.3746 -2037.08
-733.637 -0.995048 -2255.09
1085.97 1253.2 -1218.39
811.142 397.032 -830.757
444.804 956.831 -1773.09
0 0 0
-733.841 -84.5509 -2669.16
-734.045 -168.442 -3084.9
-734.25 -252.333 -3500.63
0 0 0
0 0 0
0 0 0
-435.42 -153.641 -3651.59
-388.3 -513.697 -3002.83
215.942 -453.438 -2775.23
632.016 541.931 -1635.11
475.819 696.448 -972.811
239.552 294.44 -1812.36
672.462 441.457 -554.038
1122.89 569.648 -1474.79
75.8413 536.789 -709.538
348.219 217.676 -3187.86
743.162 161.924 -2216.04
1078.47 679.196 -1695.35
-240.019 -226.699 -2438.39
543.364 250.516 -2259.49
498.647 109.729 -2296.56
328.903 20.3585 -2316.8
-734.045 -168.442 -3084.9
0 0 0
0 0 0
0 0 0

VECTORS Displacement float
0.00728204 0.00402622 -0.0416859
-0.000601105 0.00216926 -0.0633374
-0.00245004 -0.00560671 -0.0461268
-0.000602531 0.00203688 -0.068681
-0.00418667 0.00238672 -0.0124076
0 0 0
0.00468348 0.00517904 -0.0343287
0.00334844 4.04435e-05 -0.0221144
0.0129324 0.00377298 -0.0169387
0 0 0
0 0 0
0 0 0
-0.00295551 0.000807391 -0.0429278
-0.000735841 0.00203713 -0.0709282
-0.00718984 0.00158502 -0.0404877
0.0101178 -0.0037275 -0.0256123
0.0218051 0.0158461 -0.0487236
0 0 0
-0.000599685 0.0023011 -0.0580152
-0.000732995 0.00230136 -0.0602624
-0.000734421 0.00216898 -0.065606
0 0 0
0.00234477 0.00429725 -0.0555782
0.00605382 0.00658747 -0.0547808
-0.000733708 0.00223517 -0.0629342
0.00785228 0.00439796 -0.00937532
0.00656438 0.00591987 -0.00816471
0 0 0
0 0 0
0.00471682 0.00691539 -0.00828
0.0057696 0.00824697 -0.0122554
0.00382293 0.0102966 -0.0174413
-0.00260694 0.00511082 -0.0246161
0.00429121 0.00519832 -0.0165192
-0.00641897 0.00201072 -0.050218
-0.00287855 0.00380692 -0.037935
-0.000941643 0.00232719 -0.0590489
-0.000735131 0.00210306 -0.0682671
8.22668e-05 0.00317398 -0.0279188
0.0115626 0.00433553 -0.0541908
0.0121378 0.00738024 -0.044641
0.0096328 0.00294415 -0.0329784
0.0051457 0.00372168 -0.0309919
-0.00215375 -0.0048216 -0.056766
-0.00572948 -0.00260547 -0.0567143
-0.000669186 0.00203701 -0.0698046
-0.00189018 0.00153244 -0.0294608
-0.00119794 0.0055001 -0.00891616
-0.00419224 0.000505698 -0.0411077
-0.0040525 -0.00228963 -0.0356975
0 0 0
-0.00112755 0.00115295 -0.0125356
0.00195338 -0.00159629 -0.0551108
0.00116384 -0.00224072 -0.0576165
-0.000601818 0.00210307 -0.0660092
0.00327102 0.000137922 -0.0102267
0 0 0
0 0 0
0.00431872 0.00184246 -0.0107882
0.00494419 0.000141015 -0.00978109
0.00901544 -0.000906973 -0.0158724
0.00811928 -0.00194735 -0.0248641
0.00138402 0.000266424 -0.0238727
0.00990653 0.000702438 -0.0437472
0.0066501 -0.00100619 -0.0351624
0.00277303 0.000155277 -0.0541423
-0.000600395 0.00223518 -0.0606763
0.00384528 -0.00141227 -0.034609
-0.00128586 -0.00272086 -0.0482024
-0.000765948 -0.00211692 -0.0348562
0.00732052 0.00288841 -0.050976
-0.00066634 0.00230123 -0.0591388
0.0103542 -9.18766e-05 -0.0236935
0.00729038 0.00220955 -0.00987028
0.00667654 0.00381205 -0.033996
0 0 0
-0.00066705 0.00223531 -0.0617999
-0.000667763 0.00216912 -0.0644717
-0.000668476 0.00210293 -0.0671435
0 0 0
0 0 0
0 0 0
-0.00174828 -0.000283205 -0.0591328
0.00187507 0.00122789 -0.0564642
0.00164453 -0.000450609 -0.0461457
0.00309193 0.00175518 -0.0209557
0.0048119 0.00537516 -0.0103366
0.000874404 0.00350243 -0.0214945
0.00540542 0.00362457 -0.0072938
0.00746912 0.00171779 -0.0199997
0.00279448 0.00411342 -0.00914341
-0.000519021 0.00186708 -0.046503
0.00279149 0.00109216 -0.0341064
0.00770704 0.00086631 -0.026593
0.00479886 0.00423344 -0.0542756
0.00493311 0.00234799 -0.0370984
-0.000706536 0.000796692 -0.0343422
0.00566057 0.00300296 -0.0432612
-0.000667763 0.00216912 -0.0644717
0 0 0
0 0 0
0 0 0

VECTORS Acceleration float
-1.40856e+08 103725 -1.88646e+08
3.48532e+07 1.05746e+07 -9.47137e+07
8.12e+07 5.16071e+07 -1.16963e+08
3.48653e+07 1.60845e+07 4.26738e+07
8.30124e+07 8.9494e+06 -2.28021e+08
0 0 0
-2.65858e+08 -2.45987e+08 2.51557e+08
-1.06727e+07 -1.11463e+08 -5.05052e+07
-1.56562e+08 -3.02118e+07 -5.91638e+07
0 0 0
0 0 0
0 0 0
-8.72849e+07 -9.12994e+07 -4.82394e+07
4.03158e+07 1.61128e+07 3.08874e+07
-2.77079e+06 -2.07165e+07 1.60731e+08
-7.00258e+07 956612 -8.48769e+07
-3.45214e+08 -3.87486e+08 -1.95561e+06
0 0 0
3.48411e+07 5.08662e+06 -2.31553e+08
4.02917e+07 5.1149e+06 -2.43339e+08
4.03038e+07 1.06248e+07 -1.05952e+08
0 0 0
3.12016e+07 2.79066e+06 1.51115e+07
-1.62358e+07 -7.28038e+07 6.63793e+07
1.64349e+08 2.69639e+08 8.68518e+08
1.94343e+07 -1.65351e+07 4.47163e+07
-1.1955e+07 -3.98437e+07 1.67644e+07
2.15627e+08 4.96983e+08 -1.14188e+09
1.29524e+08 5.40707e+06 -5.628e+08
-1.5971e+08 -9.25755e+07 6.95132e+07
-2.28864e+08 -1.35944e+08 1.55685e+08
-2.456e+08 -1.85022e+08 -6.06591e+07
-8.06719e+07 -8.04823e+07 -7.56909e+07
1.28751e+07 -3.16741e+07 1.63232e+07
1.88715e+07 5.36023e+07 -1.70306e+08
7.57037e+07 -2.36388e+07 -1.1191e+08
6.21416e+07 4.59467e+07 1.98412e+07
-2.12379e+08 2.36378e+08 1.08799e+09
3.94039e+07 -1.11806e+07 -2.2462e+06
1.39039e+07 1.48269e+08 -237580
6.51836e+07 8.59304e+07 -4.15392e+07
2.37678e+08 1.70189e+08 4.00791e+06
1.10045e+08 1.80642e+08 -2.7517e+07
-8.19803e+07 1.07887e+08 3.98787e+07
6.65166e+07 1.46402e+08 -8.71328e+06
-1.79547e+08 -1.38891e+07 5.19338e+08
3.41425e+07 4.35425e+07 -1.84815e+08
4.98723e+07 -9.06081e+06 -1.63406e+08
-3.45615e+06 1.29135e+07 -2.56181e+07
1.14599e+08 1.08313e+08 -8.11294e+07
-1.83687e+08 3.32722e+08 -7.8496e+08
6.42278e+07 2.73046e+07 -8.67102e+07
-1.03304e+08 -2.70251e+07 -1.47701e+07
-1.45254e+08 -2.92041e+07 7.40752e+06
6.78402e+06 -9.60268e+07 5.20327e+08
1.09654e+07 2.95511e+07 -9.1081e+07
1.94254e+08 -1.25083e+08 -8.37601e+08
2.24395e+07 -1.06131e+08 -2.71681e+08
-6.76079e+07 -6.58159e+07 1.08088e+07
-2.96343e+07 -1.70291e+07 -3.08285e+07
-4.02507e+06 -3.88964e+07 2.70673e+07
-3.85205e+07 1.22074e+07 -2.42189e+07
6.14598e+07 5.42549e+07 -6.24285e+07
-8.1361e+07 -1.08242e+08 2.06263e+07
-9.8299e+07 -9.46435e+07 -5.24642e+07
-6.14167e+07 -8.05289e+07 7.11643e+07
2.29278e+08 -1.38511e+08 8.47682e+08
-1.04213e+08 -4.59798e+07 6.93959e+06
-2.45922e+07 1.82467e+07 9.36904e+07
-4.5032e+06 3.48717e+07 3.82963e+07
1.04538e+08 1.31166e+08 -5.0779e+07
6.01364e+07 1.82985e+07 4.94431e+08
4.61336e+07 -8.15271e+06 313686
2.04515e+07 -3.30178e+07 4.44495e+07
2.1796e+08 6.3033e+07 -1.01464e+08
5.43298e+08 1.46007e+08 -1.34242e+09
4.78371e+07 6.12657e+07 4.6257e+08
4.62968e+07 -3.73606e+07 7.52612e+08
-1.36942e+08 -1.22621e+08 8.72075e+08
-5.90793e+06 9.88878e+07 -4.17963e+08
1.90443e+08 1.58028e+08 -9.32168e+08
1.31699e+08 2.47212e+08 -7.25706e+08
6.601e+07 3.95814e+07 3.29311e+07
1.29159e+07 -8.92368e+06 3.84697e+07
9.38474e+06 -4.00649e+06 3.99739e+07
-9.28698e+07 -3.74002e+06 7.62218e+07
-1.42284e+08 -1.1484e+08 1.15612e+08
3.76702e+06 -5.45156e+06 -3.93253e+07
7.36526e+06 -6.06348e+07 -2.18979e+07
4.49508e+06 3.26001e+07 -1.54233e+07
2.74938e+07 1.62287e+07 -1.00365e+08
7.12534e+07 4.0146e+06 5.37296e+07
9.86968e+06 2.79734e+06 2.52832e+07
-8.97243e+07 -3.71321e+07 8.16539e+07
-1.16429e+08 -1.1659e+08 3.23786e+07
6.06889e+07 -5.36029e+07 -1.21687e+06
-7.12445e+07 -2.39011e+07 1.00434e+08
8.43845e+07 9.06056e+07 -9.18472e+07
3.75785e+07 1.05997e+07 -1.00333e+08
0 0 0
0 0 0
0 0 0

VECTORS Contact_Forces float
0 0 0
0 0 0
0 0 0
0 0 0
0 0 0
0 0 0
0 0 0
0 0 0
0 0 0
0 0 0
0 0 0
0 0 0
0 0 0
0 0 0
0 0 0
0 0 0
0 0 0
0 0 0
0 0 0
0 0 0
0 0 0
0 0 0
0 0 0
0 0 0
0 0 0
0 0 0
0 0 0
0 0 0
0 0 0
0 0 0
0 0 0
0 0 0
0 0 0
0 0 0
0 0 0
0 0 0
0 0 0
0 0 0
0 0 0
0 0 0
0 0 0
0 0 0
0 0 0
0 0 0
0 0 0
0 0 0
0 0 0
0 0 0
0 0 0
0 0 0
0 0 0
0 0 0
0 0 0
0 0 0
0 0 0
0 0 0
0 0 0
0 0 0
0 0 0
0 0 0
0 0 0
0 0 0
0 0 0
0 0 0
0 0 0
0 0 0
0 0 0
0 0 0
0 0 0
0 0 0
0 0 0
0 0 0
0 0 0
0 0 0
0 0 0
0 0 0
0 0 0
0 0 0
0 0 0
0 0 0
0 0 0
0 0 0
0 0 0
0 0 0
0 0 0
0 0 0
0 0 0
0 0 0
0 0 0
0 0 0
0 0 0
0 0 0
0 0 0
0 0 0
0 0 0
0 0 0
0 0 0
0 0 0
0 0 0
0 0 0
0 0 0
0 0 0

VECTORS Contact_Pressure_/_Normal float
0 0 0
0 0 0
0 0 0
0 0 0
0 0 0
0 0 0
0 0 0
0 0 0
0 0 0
0 0 0
0 0 0
0 0 0
0 0 0
0 0 0
0 0 0
0 0 0
0 0 0
0 0 0
0 0 0
0 0 0
0 0 0
0 0 0
0 0 0
0 0 0
0 0 0
0 0 0
0 0 0
0 0 0
0 0 0
0 0 0
0 0 0
0 0 0
0 0 0
0 0 0
0 0 0
0 0 0
0 0 0
0 0 0
0 0 0
0 0 0
0 0 0
0 0 0
0 0 0
0 0 0
0 0 0
0 0 0
0 0 0
0 0 0
0 0 0
0 0 0
0 0 0
0 0 0
0 0 0
0 0 0
0 0 0
0 0 0
0 0 0
0 0 0
0 0 0
0 0 0
0 0 0
0 0 0
0 0 0
0 0 0
0 0 0
0 0 0
0 0 0
0 0 0
0 0 0
0 0 0
0 0 0
0 0 0
0 0 0
0 0 0
0 0 0
0 0 0
0 0 0
0 0 0
0 0 0
0 0 0
0 0 0
0 0 0
0 0 0
0 0 0
0 0 0
0 0 0
0 0 0
0 0 0
0 0 0
0 0 0
0 0 0
0 0 0
0 0 0
0 0 0
0 0 0
0 0 0
0 0 0
0 0 0
0 0 0
0 0 0
0 0 0
0 0 0

VECTORS Contact_Pressure_/_Tangent float
0 0 0
0 0 0
0 0 0
0 0 0
0 0 0
0 0 0
0 0 0
0 0 0
0 0 0
0 0 0
0 0 0
0 0 0
0 0 0
0 0 0
0 0 0
0 0 0
0 0 0
0 0 0
0 0 0
0 0 0
0 0 0
0 0 0
0 0 0
0 0 0
0 0 0
0 0 0
0 0 0
0 0 0
0 0 0
0 0 0
0 0 0
0 0 0
0 0 0
0 0 0
0 0 0
0 0 0
0 0 0
0 0 0
0 0 0
0 0 0
0 0 0
0 0 0
0 0 0
0 0 0
0 0 0
0 0 0
0 0 0
0 0 0
0 0 0
0 0 0
0 0 0
0 0 0
0 0 0
0 0 0
0 0 0
0 0 0
0 0 0
0 0 0
0 0 0
0 0 0
0 0 0
0 0 0
0 0 0
0 0 0
0 0 0
0 0 0
0 0 0
0 0 0
0 0 0
0 0 0
0 0 0
0 0 0
0 0 0
0 0 0
0 0 0
0 0 0
0 0 0
0 0 0
0 0 0
0 0 0
0 0 0
0 0 0
0 0 0
0 0 0
0 0 0
0 0 0
0 0 0
0 0 0
0 0 0
0 0 0
0 0 0
0 0 0
0 0 0
0 0 0
0 0 0
0 0 0
0 0 0
0 0 0
0 0 0
0 0 0
0 0 0
0 0 0

VECTORS Tied_Contact_Forces float
0 0 0
0 0 0
0 0 0
0 0 0
0 0 0
0 0 0
0 0 0
0 0 0
0 0 0
0 0 0
0 0 0
0 0 0
0 0 0
0 0 0
0 0 0
0 0 0
0 0 0
0 0 0
0 0 0
0 0 0
0 0 0
0 0 0
0 0 0
0 0 0
0 0 0
0 0 0
0 0 0
0 0 0
0 0 0
0 0 0
0 0 0
0 0 0
0 0 0
0 0 0
0 0 0
0 0 0
0 0 0
0 0 0
0 0 0
0 0 0
0 0 0
0 0 0
0 0 0
0 0 0
0 0 0
0 0 0
0 0 0
0 0 0
0 0 0
0 0 0
0 0 0
0 0 0
0 0 0
0 0 0
0 0 0
0 0 0
0 0 0
0 0 0
0 0 0
0 0 0
0 0 0
0 0 0
0 0 0
0 0 0
0 0 0
0 0 0
0 0 0
0 0 0
0 0 0
0 0 0
0 0 0
0 0 0
0 0 0
0 0 0
0 0 0
0 0 0
0 0 0
0 0 0
0 0 0
0 0 0
0 0 0
0 0 0
0 0 0
0 0 0
0 0 0
0 0 0
0 0 0
0 0 0
0 0 0
0 0 0
0 0 0
0 0 0
0 0 0
0 0 0
0 0 0
0 0 0
0 0 0
0 0 0
0 0 0
0 0 0
0 0 0
0 0 0

CELL_DATA 47
SCALARS ELEMENT_ID int 1
LOOKUP_TABLE default
0
0
0
0
0
0
0
0
0
0
0
0
1
2
3
4
5
6
7
8
9
10
11
12
13
14
15
16
17
18
19
20
21
22
23
24
25
26
27
28
29
30
31
32
33
34
35

SCALARS PART_ID int 1
LOOKUP_TABLE default
36
36
36
36
36
36
37
37
37
37
37
37
1
1
1
1
1
1
1
1
1
1
1
1
1
1
1
1
1
1
1
1
1
1
1
1
1
1
1
1
1
1
1
1
1
1
1

SCALARS EROSION_STATUS int 1
LOOKUP_TABLE default
1
1
1
1
1
1
1
1
1
1
1
1
1
1
1
1
1
1
1
1
1
1
1
1
1
1
1
1
1
1
1
1
1
1
1
1
1
1
1
1
1
1
1
1
1
1
1

SCALARS 1DELEM_Plastic_Strain float 1
LOOKUP_TABLE default
0
0
0
0
0
0
0
0
0
0
0
0
0
0
0
0
0
0
0
0
0
0
0
0
0
0
0
0
0
0
0
0
0
0
0
0
0
0
0
0
0
0
0
0
0
0
0

SCALARS 1DELEM_Specific_Energy float 1
LOOKUP_TABLE default
0
0
0
0
0
0
0
0
0
0
0
0
0
0
0
0
0
0
0
0
0
0
0
0
0
0
0
0
0
0
0
0
0
0
0
0
0
0
0
0
0
0
0
0
0
0
0

SCALARS 1DELEM_Von_Mises float 1
LOOKUP_TABLE default
0
0
0
0
0
0
0
0
0
0
0
0
0
0
0
0
0
0
0
0
0
0
0
0
0
0
0
0
0
0
0
0
0
0
0
0
0
0
0
0
0
0
0
0
0
0
0

SCALARS 3DELEM_Plastic_Strain float 1
LOOKUP_TABLE default
0
0
0
0
0
0
0
0
0
0
0
0
0
0
0
0
0
0
0
0
0
0
0
0
0
0
0
0
0
0
0
0
0
0
0
0
0
0
0
0
0
0
0
0
0
0
0

SCALARS 3DELEM_Specific_Energy float 1
LOOKUP_TABLE default
0
0
0
0
0
0
0
0
0
0
0
0
1.13381e+08
1.0377e+08
1.03674e+08
1.0191e+08
1.13584e+08
1.33556e+08
1.0923e+08
1.26752e+08
8.97854e+07
1.26154e+08
8.01211e+07
1.05852e+08
1.00239e+08
9.97196e+07
1.4639e+08
9.46292e+07
1.24869e+08
1.43668e+08
1.20103e+08
1.52512e+08
1.48236e+08
1.11239e+08
1.30963e+08
1.14639e+08
1.00843e+08
1.36022e+08
1.10505e+08
1.19527e+08
1.58301e+08
1.25538e+08
1.23303e+08
1.16803e+08
1.22328e+08
1.36686e+08
8.98551e+07

SCALARS 3DELEM_Von_Mises float 1
LOOKUP_TABLE default
0
0
0
0
0
0
0
0
0
0
0
0
458.391
449.98
446.625
434.172
386.936
527.073
499.816
450.655
406.14
469.14
343.526
459.481
345.409
372.922
471.927
416.628
469.51
546.895
489.974
495.315
505.145
445.745
469.868
420.892
412.018
432.168
451.17
442.922
528.498
444.763
507.305
475.039
446.092
502.656
393.184

TENSORS 3DELEM_Stress float
0 0 0 
0 0 0 
0 0 0 
0 0 0 
0 0 0 
0 0 0 
0 0 0 
0 0 0 
0 0 0 
0 0 0 
0 0 0 
0 0 0 
0 0 0 
0 0 0 
0 0 0 
0 0 0 
0 0 0 
0 0 0 
0 0 0 
0 0 0 
0 0 0 
0 0 0 
0 0 0 
0 0 0 
0 0 0 
0 0 0 
0 0 0 
0 0 0 
0 0 0 
0 0 0 
0 0 0 
0 0 0 
0 0 0 
0 0 0 
0 0 0 
0 0 0 
66.1504 2.61504 -44.0132
2.61504 56.249 -29.119
-44.0132 -29.119 510.28
56.0941 -6.49193 3.03375
-6.49193 7.98435 -7.66193
3.03375 -7.66193 479.718
20.6647 39.7856 10.7411
39.7856 -11.5035 -4.7335
10.7411 -4.7335 444.508
59.9581 -9.91405 -62.1753
-9.91405 29.5261 -35.482
-62.1753 -35.482 459.642
120.955 7.06427 -56.0146
7.06427 115.957 -91.9555
-56.0146 -91.9555 457.234
-51.9948 -9.21762 9.10398
-9.21762 23.9933 -25.2519
9.10398 -25.2519 506.632
-5.37267 6.23257 -6.32476
6.23257 -10.1643 -18.237
-6.32476 -18.237 490.794
1.75071 26.2773 -6.11726
26.2773 30.3215 41.4344
-6.11726 41.4344 457.786
0.589996 14.0552 26.6521
14.0552 6.99006 -15.6713
26.6521 -15.6713 405.609
69.3729 -24.7199 27.1519
-24.7199 -43.8117 13.8533
27.1519 13.8533 466.502
113.505 -31.0145 8.48519
-31.0145 59.9583 59.0262
8.48519 59.0262 406.584
25.3524 -59.0765 11.2927
-59.0765 15.8987 18.4178
11.2927 18.4178 466.928
65.0497 7.14784 -44.0485
7.14784 47.1333 -21.7527
-44.0485 -21.7527 390.266
116.78 2.97761 -77.8467
2.97761 100.281 -96.7299
-77.8467 -96.7299 412.816
-8.00655 -39.2041 -44.7268
-39.2041 19.0934 -13.5854
-44.7268 -13.5854 464.889
74.9126 7.91 3.06862
7.91 7.84782 -38.5345
3.06862 -38.5345 448.24
-42.9647 20.4541 -39.7501
20.4541 8.47463 23.0459
-39.7501 23.0459 441.957
17.9258 -14.3414 -22.351
-14.3414 67.2103 -26.3352
-22.351 -26.3352 583.933
1.51003 13.2757 -57.5737
13.2757 32.073 -35.2579
-57.5737 -35.2579 491.314
-9.1992 37.1189 14.992
37.1189 5.11922 -13.433
14.992 -13.433 487.689
-4.82753 -83.5135 12.5391
-83.5135 -49.2578 -38.7411
12.5391 -38.7411 450.234
-4.1923 5.83826 12.6582
5.83826 -4.76253 -17.7861
12.6582 -17.7861 439.546
82.7775 -21.8726 -41.0138
-21.8726 18.3273 -60.7175
-41.0138 -60.7175 497.899
110.961 -22.8114 -12.1913
-22.8114 122.195 -61.3687
-12.1913 -61.3687 521.238
79.4551 -22.6966 37.9273
-22.6966 89.6232 68.4801
37.9273 68.4801 471.517
45.7827 -28.7572 21.6636
-28.7572 24.5602 41.2871
21.6636 41.2871 456.394
23.2137 5.16777 -8.92112
5.16777 1.83323 -21.7988
-8.92112 -21.7988 461.374
-11.5051 0.758461 11.6
0.758461 -10.6677 -18.2853
11.6 -18.2853 430.242
-52.0867 -81.2102 10.1369
-81.2102 -30.5128 54.956
10.1369 54.956 458.507
54.9865 11.9861 -116.686
11.9861 49.2898 -12.6008
-116.686 -12.6008 447.152
-4.99352 38.5952 -47.032
38.5952 5.22051 -62.6665
-47.032 -62.6665 484.257
35.1178 8.79833 9.48709
8.79833 8.95059 -33.3038
9.48709 -33.3038 492.48
63.5279 12.0873 -47.4438
12.0873 70.398 -73.7957
-47.4438 -73.7957 485.812
-2.87136 6.4467 10.9094
6.4467 12.6895 -10.1432
10.9094 -10.1432 506.598
81.2546 -16.3511 -30.9355
-16.3511 90.1457 -26.6394
-30.9355 -26.6394 471.358

