# vtk DataFile Version 3.0
vtk output
ASCII
DATASET UNSTRUCTURED_GRID
FIELD FieldData 2
TIME 1 1 double
0.00600044
CYCLE 1 1 int
0
POINTS 102 float
0.605729 -4.99829 8.06388
-0.021866 4.99988 -0.0560539
-0.551807 5.00029 8.09459
9.99813 4.99764 -0.0583
0.454295 -4.9978 19.0704
-0.02 5 30
9.99368 4.99442 20.9244
-0.289632 4.99544 18.9076
-10.0065 -5.00478 20.7721
0.02 -5 30
-10 5 30
-10 -5 30
9.98942 4.99691 9.58912
9.99591 -5.00235 -0.0599894
9.99333 -5.00058 14.9418
-9.99977 4.98975 14.9376
-9.98474 -4.9978 9.16503
10 -5 30
-10.0019 5.0021 -0.0538167
-10.0041 -4.9979 -0.0555062
0.0159072 -5.00013 -0.0577523
10 5 30
0.310216 -4.99751 3.99975
-4.6942 -4.99787 3.99777
-4.99409 -4.99902 -0.0566293
-9.99659 -5.00445 25.389
-4.98888 -4.99998 25.3889
-4.99 -5 30
5.01 -5 30
0.23671 -4.99734 24.5334
5.22677 -4.99534 24.531
9.99804 -4.99484 22.4734
5.22527 -4.99861 17.0059
-4.77483 -5.00168 19.9252
9.98923 -5.00084 7.44024
5.29923 -4.99993 11.5
5.29547 -5.00049 3.99562
5.00591 -5.00124 -0.0588709
0.530083 -4.99973 13.5662
-9.99351 -4.99728 4.55607
-4.68849 -4.99852 8.6148
-9.99288 -5.00855 14.9681
-4.76854 -5.00365 14.1194
9.98855 4.99438 4.76653
9.98881 -0.00395002 4.7667
9.99702 -0.00235487 -0.0591447
9.99672 -0.0014475 17.932
9.99594 0.00173894 25.4643
9.99314 -0.00188633 12.2645
9.99547 4.99406 15.257
10 0 30
9.99386 4.99994 25.4624
-0.288278 4.99827 4.0169
4.71677 4.99496 4.01241
4.98813 4.99876 -0.0571769
4.98452 4.99837 25.4625
4.99 5 30
-5.01 5 30
-0.160234 4.9965 24.4517
-5.15312 4.99037 24.4485
-10.0125 4.97996 22.4705
-5.15004 4.99125 16.9313
4.85342 4.99673 19.9142
-9.98838 5.00051 7.44726
-5.27157 4.99492 11.52
-5.27422 4.99708 4.01545
-5.01187 5.00099 -0.0549353
-0.421281 4.99421 13.5009
4.71784 4.99508 8.83851
4.85444 4.99586 14.2506
-9.99509 0.00273488 4.56031
-10.003 0.00209797 -0.0546615
-9.99993 -0.0129954 17.8502
-10.0006 -0.00770892 25.3908
-9.99442 -0.00495165 12.053
-10 0 30
-5.01298 0.000986989 -0.05578
-0.00297939 -0.000128449 -0.0569031
5.00702 -0.00124389 -0.0580261
0 0 30
-5.01 0 30
5.01 0 30
5.29546 -0.00334242 3.99524
0.289553 -0.000426118 3.9967
0.0236822 -0.000406216 8.07078
0.0825685 -0.00183429 18.9825
0.214939 0.000368564 24.5299
5.22532 0.000327964 19.9936
-5.01134 -0.00310579 25.3873
-5.14705 -0.00773354 19.8396
5.00743 0.00168732 25.4625
5.29692 -0.00210503 8.82119
0.159105 -0.00198391 13.4805
-4.77428 -0.00709302 17.0043
-5.27571 0.000513549 4.01365
-4.6925 -0.00305237 11.4995
5.22494 -0.0020372 14.3274
-5.27213 -0.0015933 8.6288
-0.00297939 -0.000128449 -0.0569031
0 0 0
0 0 30
0 0 30

CELLS 47 211
2 98 19
2 98 13
2 98 3
2 98 18
2 98 20
2 98 1
2 100 11
2 100 17
2 100 21
2 100 10
2 100 9
2 100 5
4 0 1 2 3
4 4 5 6 7
4 4 5 7 8
4 4 5 6 9
4 5 8 10 11
4 0 12 13 14
4 0 2 7 12
4 4 8 15 16
4 7 8 10 15
4 4 6 14 17
4 1 2 18 19
4 0 1 2 19
4 4 5 8 9
4 5 8 9 11
4 0 4 15 16
4 5 7 8 10
4 0 4 7 15
4 0 3 12 13
4 0 4 7 12
4 4 7 8 15
4 0 2 15 16
4 4 6 7 12
4 4 6 9 17
4 0 3 13 20
4 0 1 19 20
4 2 16 18 19
4 4 6 12 14
4 0 2 7 15
4 0 2 16 19
4 6 9 17 21
4 0 4 12 14
4 0 2 3 12
4 5 6 9 21
4 2 15 16 18
4 0 1 3 20

CELL_TYPES 47
3
3
3
3
3
3
3
3
3
3
3
3
10
10
10
10
10
10
10
10
10
10
10
10
10
10
10
10
10
10
10
10
10
10
10
10
10
10
10
10
10
10
10
10
10
10
10

POINT_DATA 102
SCALARS NODE_ID int 1
LOOKUP_TABLE default
20
18
22
6
19
16
15
21
10
11
7
2
14
4
12
17
9
3
8
1
13
5
23
24
25
26
27
28
29
30
31
32
33
34
35
36
37
38
39
40
41
42
43
44
45
46
47
48
49
50
51
52
53
54
55
56
57
58
59
60
61
62
63
64
65
66
67
68
69
70
71
72
73
74
75
76
77
78
79
80
81
82
83
84
85
86
87
88
89
90
91
92
93
94
95
96
97
98
99
100
101
102

SCALARS Time_Step float 1
LOOKUP_TABLE default
1.00054e-06
1.47838e+07
1.00044e-06
1.51395e+07
1.00129e-06
2.09559e+07
1.00133e-06
1.00098e-06
1.00052e-06
1.77935e+07
1.35445e+07
9.84791e+06
1.00114e-06
1.28134e+07
1.00167e-06
1.00045e-06
1.00067e-06
1.34359e+07
1.27647e+07
1.5174e+07
1.13089e+07
9.76738e+06
1.00042e-06
1.00051e-06
1.0014e-06
1.00037e-06
1.00085e-06
1.00097e-06
1.00142e-06
1.00235e-06
1.00246e-06
1.00259e-06
1.00183e-06
1.00051e-06
1.0015e-06
1.00149e-06
1.00107e-06
1.00099e-06
1.00201e-06
1.00081e-06
1.00092e-06
1.00116e-06
1.00148e-06
1.00084e-06
1.00151e-06
1.00097e-06
1.00187e-06
1.00164e-06
1.00151e-06
1.00194e-06
1.00061e-06
1.00052e-06
1.00052e-06
1.00119e-06
1.00077e-06
1.00124e-06
1.00101e-06
1.00103e-06
1.00211e-06
1.00234e-06
1.00235e-06
1.00046e-06
1.00202e-06
1.00149e-06
1.0009e-06
1.00095e-06
1.00083e-06
1.0011e-06
1.00073e-06
1.00143e-06
1.00125e-06
1.00082e-06
1.00039e-06
1.00137e-06
1.00074e-06
1.00044e-06
1.00056e-06
1.00088e-06
1.00057e-06
1.00102e-06
1.00037e-06
1.00052e-06
1.00066e-06
1.0004e-06
1.00046e-06
1.0008e-06
1.0021e-06
1.00207e-06
1.00107e-06
1.00068e-06
1.00118e-06
1.00105e-06
1.00143e-06
1.00041e-06
1.00037e-06
1.00105e-06
1.00187e-06
1.00101e-06
1.00038e-06
1e+06
1.00077e-06
1e+06

SCALARS Mass_Change float 1
LOOKUP_TABLE default
2.2422
0
2.30027
0
2.01901
0
1.68804
2.04981
2.05601
0
0
0
1.65365
0
1.21511
2.53445
2.3947
0
0
0
0
0
2.31431
2.26565
2.61505
1.57571
1.35447
1.57575
2.23139
2.32331
1.67151
0.876327
1.3781
2.52078
0.804042
1.19955
1.88587
2.06013
2.06006
2.45949
3.57507
0.751165
1.29388
2.27066
1.82733
2.77493
1.23034
1.66369
1.35351
1.36066
1.64855
1.64506
2.48718
1.83623
2.41868
1.95553
1.64466
2.22981
1.67708
1.6695
0.829841
2.71296
1.07589
0.784109
2.84691
1.8988
2.05224
1.20458
1.17278
1.61888
1.8458
2.83722
2.70845
1.64311
2.36837
1.5791
2.50446
2.44585
2.16814
1.88685
1.57571
1.64506
2.28567
2.57106
2.49283
2.50328
1.62474
1.70208
1.65405
2.86202
2.33662
1.75369
1.76339
2.91874
2.45514
3.03041
1.80187
3.07308
2.24947
0
1.76722
0

VECTORS Velocity float
120.038 199.88 2562.49
246.898 -163.218 3189.96
-645.691 -211.789 2538.5
246.801 -609.464 3154.95
377.973 556.65 1992.63
0 0 0
256.087 -164.884 860.059
-238.769 131.062 1724.25
286.052 905.694 77.6007
0 0 0
0 0 0
0 0 0
-354.284 1035.65 1929.84
-198.408 -609.515 3844.8
212.971 593.715 1525.88
-668.584 -382.625 2302.85
1484.11 128.541 1979.8
0 0 0
246.995 281.247 3224.82
-198.214 281.196 3914.67
-198.312 -165.05 3879.66
0 0 0
-10.6273 53.2601 3323.82
-18.6937 150.542 3454.36
-198.263 58.073 3897.16
-408.444 -189.349 65.7346
-126.927 -357.537 624.411
0 0 0
0 0 0
422.466 -32.7783 995.655
707.254 293.293 698.909
1081.14 468.588 1040.44
394.669 336.087 2012.11
362.101 -21.8844 1565.93
126.721 20.5024 3699.25
111.057 274.955 2939.14
12.1013 -120.424 3626.72
-198.36 -387.282 3862.23
26.1545 199.206 2445.64
76.5178 -85.4744 2795.47
551.801 57.4768 2740.07
206.594 -1037.49 1956.32
436.182 -472.1 2787.03
439.78 45.8978 2513.05
289.06 -211.49 3268.77
24.1961 -609.489 3499.88
409.289 576.097 1658.16
669.952 209.315 778.308
117.695 1123.08 2404.03
-42.1856 1163.72 1637.82
0 0 0
687.548 387.052 442
-127.564 -90.3104 3008.65
185.528 57.2825 3085.74
246.849 -386.341 3172.46
404.424 629.878 703.488
0 0 0
0 0 0
-101.404 288.504 1097.07
-124.455 131.887 906.019
-91.7046 535.215 1251.97
-389.423 166.129 1963.28
-20.3972 640.039 1770.94
-1010.8 -714.118 3487.69
-798.222 61.9858 2717.97
-512.313 -224.691 3391.91
246.946 59.0148 3207.39
-446.717 554.958 2545.22
-282.456 367.719 2643.59
-186.067 932.425 2298.88
-431.016 -172.058 3197.06
24.3902 281.222 3569.74
-224.07 7.97874 1858.44
-505.933 179.976 656.065
-169.993 -929.254 3031.42
0 0 0
24.3418 58.9892 3552.31
24.2932 -164.134 3534.81
24.2446 -387.257 3517.31
0 0 0
0 0 0
0 0 0
210.294 -55.8473 3497.18
141.155 115.593 3442.17
79.2459 248.576 3107.87
151.837 279.153 1920.21
125.582 146.219 1197.03
318.814 526.461 1664.43
-255.234 -176.469 871.366
121.841 122.298 1843.93
400.311 373.598 775.511
-9.521 257.081 3204.02
-71.4999 330.81 2572.83
-43.9514 -10.4282 2179.38
-62.2416 144.607 3498.69
-94.018 -105.172 3172.4
62.005 596.627 2566.56
-93.7508 3.79438 3430.07
24.2932 -164.134 3534.81
0 0 0
0 0 0
0 0 0

VECTORS Displacement float
-0.000495939 0.00170553 -0.027699
-0.00186599 -0.000124191 -0.0560539
0.00252592 0.000288604 -0.0293567
-0.00186649 -0.00235507 -0.0583
0.000545614 0.00220106 -0.0104263
0 0 0
-0.00632462 -0.00558207 -0.0156354
-0.00184411 -0.00456186 -0.0152483
-0.00646712 -0.00477506 -0.0178781
0 0 0
0 0 0
0 0 0
-0.0105782 -0.00308645 -0.0408798
-0.00409329 -0.00235468 -0.0599894
-0.00666654 -0.00057802 -0.0281793
0.000234107 -0.0102513 -0.0323563
0.0152616 0.00220367 -0.044973
0 0 0
-0.00186549 0.00209778 -0.0538167
-0.00409229 0.00209817 -0.0555062
-0.00409279 -0.000132706 -0.0577523
0 0 0
-0.0028967 0.00249063 -0.0460355
0.00268287 0.00212794 -0.0480228
-0.00409254 0.000982731 -0.0566293
0.00340673 -0.00444708 -0.00604934
0.0011223 2.29937e-05 -0.00607333
0 0 0
0 0 0
-0.000165012 0.00266185 -0.00700893
-0.000106702 0.0046604 -0.00938496
-0.00195762 0.0051607 -0.0116038
-0.00160621 0.00139063 -0.0195146
-0.00170605 -0.00167646 -0.0102383
-0.0107716 -0.00083693 -0.0447617
-0.00387844 7.30113e-05 -0.0308334
-0.00764274 -0.000488781 -0.0501674
-0.00409304 -0.00124369 -0.0588709
9.5534e-05 0.00027386 -0.0199912
0.00648917 0.00272462 -0.0489279
0.00840076 0.00148249 -0.0359887
0.00711788 -0.00855044 -0.031927
0.00459003 -0.00365018 -0.0259814
-0.0114516 -0.00561749 -0.048466
-0.0111856 -0.00395002 -0.0482995
-0.00297989 -0.00235487 -0.0591447
-0.00327952 -0.0014475 -0.0229885
-0.0040597 0.00173894 -0.00573177
-0.00685731 -0.00188633 -0.0354527
-0.00452651 -0.00593952 -0.0280282
0 0 0
-0.00614396 -5.93375e-05 -0.00756454
-0.00111104 -0.00172844 -0.0450699
-0.00606255 -0.00504306 -0.0495618
-0.00186624 -0.00123963 -0.0571769
-0.00548384 -0.00163351 -0.00752079
0 0 0
0 0 0
-0.00634023 -0.00350428 -0.00975683
-0.0092303 -0.00963089 -0.0129359
-0.0125433 -0.0200388 -0.0144923
-0.00614668 -0.00875481 -0.0151307
-0.00268874 -0.00327158 -0.0172682
0.0116186 0.000515046 -0.0377389
0.00559353 -0.00508285 -0.0269938
0.00294591 -0.00292223 -0.0465253
-0.00186574 0.000986793 -0.0549353
-0.000220121 -0.00578863 -0.0225174
-0.00498844 -0.00492328 -0.03846
-0.00166586 -0.00414057 -0.0258632
0.00490812 0.00273488 -0.0446914
-0.00297889 0.00209797 -0.0546615
7.4009e-05 -0.0129954 -0.0298496
-0.000596292 -0.00770892 -0.00415828
0.00557636 -0.00495165 -0.0370396
0 0 0
-0.00297914 0.000986989 -0.05578
-0.00297939 -0.000128449 -0.0569031
-0.00297964 -0.00124389 -0.0580261
0 0 0
0 0 0
0 0 0
-0.00765482 -0.00334242 -0.0505528
-0.00355932 -0.000426118 -0.0490886
-0.00226355 -0.000406216 -0.0369748
-0.000412111 -0.00183429 -0.0193664
-0.00193563 0.000368564 -0.0104822
-0.00155212 0.000327964 -0.0167713
-0.00133539 -0.00310579 -0.00769363
-0.00315902 -0.00773354 -0.016816
-0.00256519 0.00168732 -0.00751353
-0.00619311 -0.00210503 -0.0396
-0.000113606 -0.00198391 -0.0266722
-0.00115415 -0.00709302 -0.0211099
0.00145452 0.000513549 -0.0483165
0.0043851 -0.00305237 -0.0313258
-0.00193846 -0.0020372 -0.0279511
0.00503714 -0.0015933 -0.0381702
-0.00297939 -0.000128449 -0.0569031
0 0 0
0 0 0
0 0 0

VECTORS Acceleration float
-4.68333e+06 1.4357e+07 -4.55531e+08
4.7899e+07 -3.43032e+07 -2.35333e+08
-7.19971e+07 -1.32551e+08 -4.69718e+08
4.78934e+07 -1.72034e+07 -1.91891e+08
-1.00176e+07 2.6175e+07 -2.8738e+08
0 0 0
-1.10387e+07 2.04192e+07 -5.71853e+07
2.62178e+07 4.61824e+07 -2.0446e+08
2.9191e+08 1.92431e+08 -3.49205e+07
0 0 0
0 0 0
0 0 0
8.049e+07 -1.61928e+06 -5.98324e+07
6.49635e+07 -1.71383e+07 -2.13147e+08
2.20602e+07 6.08948e+07 -1.00449e+08
1.33598e+08 1.29481e+08 1.63624e+07
-2.07334e+08 -6.41245e+07 9.21848e+06
0 0 0
4.79046e+07 -5.13347e+07 -2.78601e+08
6.49747e+07 -5.12697e+07 -2.99858e+08
6.49691e+07 -3.41699e+07 -2.56416e+08
0 0 0
2.57206e+07 -4.09891e+07 5.82383e+07
-7.06091e+07 7.49337e+06 9.49056e+07
2.42955e+08 1.09344e+08 6.61229e+08
-1.39799e+08 1.16658e+08 -5.56649e+07
-1.20028e+08 -1.49722e+07 -5.10387e+07
6.97091e+07 1.0574e+08 -6.14537e+08
-7.79432e+06 1.08237e+08 -4.24238e+08
3.57265e+07 1.87374e+06 6.74877e+07
-1.99218e+07 -4.23856e+07 1.21993e+08
-9.53151e+07 -5.04533e+07 -9.11103e+07
-3.08184e+07 -8.99721e+06 -2.72534e+07
-1.43516e+07 -3.06583e+06 -1.13399e+08
7.80604e+07 3.97661e+07 3.09894e+07
9.4954e+06 7.38636e+06 7.11168e+06
1.0705e+08 4.82888e+07 1.05574e+08
-3.93605e+08 2.02622e+08 8.66695e+08
1.02525e+07 3.12286e+07 1.08221e+07
2.85253e+07 2.96286e+06 -3.16271e+07
-5.01515e+07 7.17033e+06 -5.6242e+07
-6.12682e+07 1.66255e+08 6.35451e+06
7.87086e+07 1.30629e+08 -7.51786e+07
9.35683e+07 4.58486e+07 -6.3451e+07
7.14189e+07 4.24464e+07 -9.37075e+07
-7.22779e+07 -1.93366e+07 5.33932e+08
-6.62165e+07 1.32838e+07 9.62452e+06
-1.83712e+07 -6.38925e+07 -6.83618e+07
-4.22149e+07 -8.31473e+06 -1.5047e+06
-5.68067e+07 6.91999e+07 -4.02512e+07
-4.01479e+08 1.99502e+08 -9.16525e+08
1.73907e+07 -1.18224e+08 1.18059e+07
3.26381e+07 -4.48968e+06 3.81746e+07
1.09393e+08 6.95724e+07 1.02653e+08
-1.26611e+08 -8.76419e+07 3.87577e+08
8.32635e+07 -4.24729e+07 -1.62893e+07
-1.78193e+08 -1.99843e+08 -9.03236e+08
-9.96334e+07 -4.84274e+07 -5.4401e+08
1.28551e+08 -1.65381e+07 4.61367e+07
2.55214e+08 1.20182e+08 1.22021e+08
3.97543e+08 3.61569e+08 -9.69956e+07
1.51419e+08 2.21221e+07 -2.44675e+08
-1.29647e+07 -3.26776e+07 2.30024e+06
-2.929e+08 -2.30462e+08 -1.43959e+08
-1.09562e+08 1.51611e+06 -1.05131e+08
-4.76721e+07 4.86961e+07 7.26382e+07
2.36833e+08 -2.83319e+08 8.91673e+08
3.51069e+07 6.79136e+07 -2.54281e+07
3.27493e+07 5.03062e+07 1.89318e+07
-1.05066e+08 -1.2372e+07 -9.1878e+07
6.44315e+07 -6.89093e+07 -1.4456e+08
-1.13232e+07 1.01002e+08 5.54275e+08
-3.61339e+07 1.1181e+08 9.79575e+07
-3.81851e+07 1.20209e+08 -1.17648e+08
6.15211e+07 2.54642e+07 -7.2439e+07
2.04982e+08 -3.43055e+08 -5.88713e+08
7.58714e+07 1.43e+07 4.45004e+08
2.54867e+07 -1.25521e+08 5.96125e+08
-3.10752e+08 -1.18306e+08 6.47264e+08
-4.28119e+06 4.19283e+07 -3.44591e+08
4.13944e+06 -1.31284e+08 -6.50773e+08
-1.68745e+08 8.06181e+07 -8.11805e+08
1.09046e+08 2.97477e+07 9.84528e+07
4.59747e+07 -5.54886e+07 1.05536e+08
8.55549e+07 1.41886e+07 1.8492e+08
-8.19196e+06 70272.7 1.48841e+08
4.92617e+07 -1.30705e+07 1.4024e+08
-4.61162e+07 -2.84855e+07 4.41346e+07
-7.53221e+07 -2.49256e+07 -1.27431e+07
7.00161e+06 3.57091e+07 -1.50519e+07
1.08743e+07 -4.7589e+07 3.85847e+06
4.08931e+07 1.26564e+07 6.39197e+07
2.54818e+06 -1.28176e+07 9.88477e+07
5.18948e+07 4.95529e+07 -6.17732e+07
-5.64625e+06 2.11301e+07 1.28441e+08
-1.05695e+08 -4.68051e+07 -2.10948e+07
-5.41091e+07 2.09436e+07 2.86276e+06
9.1362e+07 9.00268e+07 -8.31391e+06
5.64341e+07 -3.42365e+07 -2.45874e+08
0 0 0
0 0 0
0 0 0

VECTORS Contact_Forces float
0 0 0
0 0 0
0 0 0
0 0 0
0 0 0
0 0 0
0 0 0
0 0 0
0 0 0
0 0 0
0 0 0
0 0 0
0 0 0
0 0 0
0 0 0
0 0 0
0 0 0
0 0 0
0 0 0
0 0 0
0 0 0
0 0 0
0 0 0
0 0 0
0 0 0
0 0 0
0 0 0
0 0 0
0 0 0
0 0 0
0 0 0
0 0 0
0 0 0
0 0 0
0 0 0
0 0 0
0 0 0
0 0 0
0 0 0
0 0 0
0 0 0
0 0 0
0 0 0
0 0 0
0 0 0
0 0 0
0 0 0
0 0 0
0 0 0
0 0 0
0 0 0
0 0 0
0 0 0
0 0 0
0 0 0
0 0 0
0 0 0
0 0 0
0 0 0
0 0 0
0 0 0
0 0 0
0 0 0
0 0 0
0 0 0
0 0 0
0 0 0
0 0 0
0 0 0
0 0 0
0 0 0
0 0 0
0 0 0
0 0 0
0 0 0
0 0 0
0 0 0
0 0 0
0 0 0
0 0 0
0 0 0
0 0 0
0 0 0
0 0 0
0 0 0
0 0 0
0 0 0
0 0 0
0 0 0
0 0 0
0 0 0
0 0 0
0 0 0
0 0 0
0 0 0
0 0 0
0 0 0
0 0 0
0 0 0
0 0 0
0 0 0
0 0 0

VECTORS Contact_Pressure_/_Normal float
0 0 0
0 0 0
0 0 0
0 0 0
0 0 0
0 0 0
0 0 0
0 0 0
0 0 0
0 0 0
0 0 0
0 0 0
0 0 0
0 0 0
0 0 0
0 0 0
0 0 0
0 0 0
0 0 0
0 0 0
0 0 0
0 0 0
0 0 0
0 0 0
0 0 0
0 0 0
0 0 0
0 0 0
0 0 0
0 0 0
0 0 0
0 0 0
0 0 0
0 0 0
0 0 0
0 0 0
0 0 0
0 0 0
0 0 0
0 0 0
0 0 0
0 0 0
0 0 0
0 0 0
0 0 0
0 0 0
0 0 0
0 0 0
0 0 0
0 0 0
0 0 0
0 0 0
0 0 0
0 0 0
0 0 0
0 0 0
0 0 0
0 0 0
0 0 0
0 0 0
0 0 0
0 0 0
0 0 0
0 0 0
0 0 0
0 0 0
0 0 0
0 0 0
0 0 0
0 0 0
0 0 0
0 0 0
0 0 0
0 0 0
0 0 0
0 0 0
0 0 0
0 0 0
0 0 0
0 0 0
0 0 0
0 0 0
0 0 0
0 0 0
0 0 0
0 0 0
0 0 0
0 0 0
0 0 0
0 0 0
0 0 0
0 0 0
0 0 0
0 0 0
0 0 0
0 0 0
0 0 0
0 0 0
0 0 0
0 0 0
0 0 0
0 0 0

VECTORS Contact_Pressure_/_Tangent float
0 0 0
0 0 0
0 0 0
0 0 0
0 0 0
0 0 0
0 0 0
0 0 0
0 0 0
0 0 0
0 0 0
0 0 0
0 0 0
0 0 0
0 0 0
0 0 0
0 0 0
0 0 0
0 0 0
0 0 0
0 0 0
0 0 0
0 0 0
0 0 0
0 0 0
0 0 0
0 0 0
0 0 0
0 0 0
0 0 0
0 0 0
0 0 0
0 0 0
0 0 0
0 0 0
0 0 0
0 0 0
0 0 0
0 0 0
0 0 0
0 0 0
0 0 0
0 0 0
0 0 0
0 0 0
0 0 0
0 0 0
0 0 0
0 0 0
0 0 0
0 0 0
0 0 0
0 0 0
0 0 0
0 0 0
0 0 0
0 0 0
0 0 0
0 0 0
0 0 0
0 0 0
0 0 0
0 0 0
0 0 0
0 0 0
0 0 0
0 0 0
0 0 0
0 0 0
0 0 0
0 0 0
0 0 0
0 0 0
0 0 0
0 0 0
0 0 0
0 0 0
0 0 0
0 0 0
0 0 0
0 0 0
0 0 0
0 0 0
0 0 0
0 0 0
0 0 0
0 0 0
0 0 0
0 0 0
0 0 0
0 0 0
0 0 0
0 0 0
0 0 0
0 0 0
0 0 0
0 0 0
0 0 0
0 0 0
0 0 0
0 0 0
0 0 0

VECTORS Tied_Contact_Forces float
0 0 0
0 0 0
0 0 0
0 0 0
0 0 0
0 0 0
0 0 0
0 0 0
0 0 0
0 0 0
0 0 0
0 0 0
0 0 0
0 0 0
0 0 0
0 0 0
0 0 0
0 0 0
0 0 0
0 0 0
0 0 0
0 0 0
0 0 0
0 0 0
0 0 0
0 0 0
0 0 0
0 0 0
0 0 0
0 0 0
0 0 0
0 0 0
0 0 0
0 0 0
0 0 0
0 0 0
0 0 0
0 0 0
0 0 0
0 0 0
0 0 0
0 0 0
0 0 0
0 0 0
0 0 0
0 0 0
0 0 0
0 0 0
0 0 0
0 0 0
0 0 0
0 0 0
0 0 0
0 0 0
0 0 0
0 0 0
0 0 0
0 0 0
0 0 0
0 0 0
0 0 0
0 0 0
0 0 0
0 0 0
0 0 0
0 0 0
0 0 0
0 0 0
0 0 0
0 0 0
0 0 0
0 0 0
0 0 0
0 0 0
0 0 0
0 0 0
0 0 0
0 0 0
0 0 0
0 0 0
0 0 0
0 0 0
0 0 0
0 0 0
0 0 0
0 0 0
0 0 0
0 0 0
0 0 0
0 0 0
0 0 0
0 0 0
0 0 0
0 0 0
0 0 0
0 0 0
0 0 0
0 0 0
0 0 0
0 0 0
0 0 0
0 0 0

CELL_DATA 47
SCALARS ELEMENT_ID int 1
LOOKUP_TABLE default
0
0
0
0
0
0
0
0
0
0
0
0
1
2
3
4
5
6
7
8
9
10
11
12
13
14
15
16
17
18
19
20
21
22
23
24
25
26
27
28
29
30
31
32
33
34
35

SCALARS PART_ID int 1
LOOKUP_TABLE default
36
36
36
36
36
36
37
37
37
37
37
37
1
1
1
1
1
1
1
1
1
1
1
1
1
1
1
1
1
1
1
1
1
1
1
1
1
1
1
1
1
1
1
1
1
1
1

SCALARS EROSION_STATUS int 1
LOOKUP_TABLE default
1
1
1
1
1
1
1
1
1
1
1
1
1
1
1
1
1
1
1
1
1
1
1
1
1
1
1
1
1
1
1
1
1
1
1
1
1
1
1
1
1
1
1
1
1
1
1

SCALARS 1DELEM_Plastic_Strain float 1
LOOKUP_TABLE default
0
0
0
0
0
0
0
0
0
0
0
0
0
0
0
0
0
0
0
0
0
0
0
0
0
0
0
0
0
0
0
0
0
0
0
0
0
0
0
0
0
0
0
0
0
0
0

SCALARS 1DELEM_Specific_Energy float 1
LOOKUP_TABLE default
0
0
0
0
0
0
0
0
0
0
0
0
0
0
0
0
0
0
0
0
0
0
0
0
0
0
0
0
0
0
0
0
0
0
0
0
0
0
0
0
0
0
0
0
0
0
0

SCALARS 1DELEM_Von_Mises float 1
LOOKUP_TABLE default
0
0
0
0
0
0
0
0
0
0
0
0
0
0
0
0
0
0
0
0
0
0
0
0
0
0
0
0
0
0
0
0
0
0
0
0
0
0
0
0
0
0
0
0
0
0
0

SCALARS 3DELEM_Plastic_Strain float 1
LOOKUP_TABLE default
0
0
0
0
0
0
0
0
0
0
0
0
0
0
0
0
0
0
0
0
0
0
0
0
0
0
0
0
0
0
0
0
0
0
0
0
0
0
0
0
0
0
0
0
0
0
0

SCALARS 3DELEM_Specific_Energy float 1
LOOKUP_TABLE default
0
0
0
0
0
0
0
0
0
0
0
0
1.34383e+08
7.8448e+07
8.60405e+07
7.71429e+07
8.5725e+07
1.05733e+08
1.04996e+08
1.17824e+08
1.16876e+08
8.67876e+07
9.71014e+07
1.29609e+08
6.93715e+07
7.86819e+07
1.07793e+08
1.22443e+08
1.02325e+08
1.09877e+08
8.42575e+07
1.22329e+08
1.64114e+08
8.38656e+07
8.62996e+07
1.19615e+08
1.05304e+08
1.29606e+08
8.97942e+07
1.27651e+08
1.60497e+08
7.84954e+07
9.90885e+07
1.1942e+08
8.11356e+07
9.85517e+07
9.58181e+07

SCALARS 3DELEM_Von_Mises float 1
LOOKUP_TABLE default
0
0
0
0
0
0
0
0
0
0
0
0
524.011
355.467
368.156
367.13
314.078
457.186
458.856
443.403
442.556
390.777
418.92
507.165
288.118
291.862
412.277
463.28
319.972
469.332
358.666
344.302
485.822
374.696
343.942
453.347
422.635
457.8
442.616
457.958
564.713
308.235
447.322
496.932
332.143
397.094
400.328

TENSORS 3DELEM_Stress float
0 0 0 
0 0 0 
0 0 0 
0 0 0 
0 0 0 
0 0 0 
0 0 0 
0 0 0 
0 0 0 
0 0 0 
0 0 0 
0 0 0 
0 0 0 
0 0 0 
0 0 0 
0 0 0 
0 0 0 
0 0 0 
0 0 0 
0 0 0 
0 0 0 
0 0 0 
0 0 0 
0 0 0 
0 0 0 
0 0 0 
0 0 0 
0 0 0 
0 0 0 
0 0 0 
0 0 0 
0 0 0 
0 0 0 
0 0 0 
0 0 0 
0 0 0 
-32.0909 -26.3181 -6.85169
-26.3181 55.2602 -82.7804
-6.85169 -82.7804 507.658
113.369 -18.93 32.7277
-18.93 -12.5348 -20.5808
32.7277 -20.5808 380.431
131.321 34.8495 1.35866
34.8495 -52.2436 -18.1553
1.35866 -18.1553 364.545
91.7847 -17.5425 -20.1317
-17.5425 23.8708 28.2995
-20.1317 28.2995 413.894
80.4252 5.02057 111.811
5.02057 39.0507 -11.8132
111.811 -11.8132 303.38
-35.9821 -10.3613 7.65023
-10.3613 23.7786 -1.1912
7.65023 -1.1912 447.593
-2.37595 3.82366 28.4822
3.82366 -15.1694 -28.542
28.4822 -28.542 444.553
14.8464 21.0342 -79.3516
21.0342 21.2631 57.9375
-79.3516 57.9375 425.839
102.072 -11.6119 41.826
-11.6119 -107.135 40.5985
41.826 40.5985 387.895
21.3336 -14.9198 16.7399
-14.9198 -36.2074 -4.18618
16.7399 -4.18618 378.131
58.9999 22.0206 -22.6479
22.0206 69.3053 93.9549
-22.6479 93.9549 446.172
-23.3797 -12.5382 23.1077
-12.5382 72.9703 42.3062
23.1077 42.3062 517.554
53.4985 15.2462 -29.7923
15.2462 -17.0087 24.1757
-29.7923 24.1757 290.586
62.2937 16.3678 14.1885
16.3678 48.6428 1.72114
14.1885 1.72114 344.652
-7.77717 -1.51155 -77.4985
-1.51155 42.4484 35.855
-77.4985 35.855 399.695
157.38 -25.4012 48.1613
-25.4012 -48.8705 78.6231
48.1613 78.6231 448.316
85.5108 20.52 -31.7688
20.52 57.7955 -43.0229
-31.7688 -43.0229 374.906
17.9112 -12.3735 -7.57402
-12.3735 48.2068 -48.538
-7.57402 -48.538 493.369
20.9198 -2.70391 -37.0602
-2.70391 18.0197 -15.1364
-37.0602 -15.1364 371.329
106.379 37.9716 -4.11286
37.9716 -11.9057 12.4267
-4.11286 12.4267 368.501
-36.7624 -6.26045 -20.0965
-6.26045 16.69 67.1031
-20.0965 67.1031 457.983
21.6943 -11.1586 36.9375
-11.1586 -9.42113 -29.2593
36.9375 -29.2593 370.329
83.7795 -22.6417 -19.6663
-22.6417 20.2405 -12.1713
-19.6663 -12.1713 386.861
54.88 -24.5876 -7.41952
-24.5876 86.1113 -123.633
-7.41952 -123.633 466.674
30.9774 -2.63253 -8.95208
-2.63253 74.4986 73.2021
-8.95208 73.2021 453.815
34.2378 -40.8493 36.3124
-40.8493 74.4831 59.9611
36.3124 59.9611 488.662
2.76272 -2.80308 1.41782
-2.80308 -16.0137 -15.1817
1.41782 -15.1817 434.876
-33.9203 22.1138 29.5929
22.1138 -8.8566 -62.8129
29.5929 -62.8129 418.298
-50.1988 -44.9194 -41.0621
-44.9194 27.7913 119.909
-41.0621 119.909 498.79
93.5506 -16.6899 -46.026
-16.6899 88.607 74.6146
-46.026 74.6146 357.721
-17.4926 7.93181 -39.6953
7.93181 13.1697 -36.1576
-39.6953 -36.1576 434.363
-58.3843 -5.15138 23.9553
-5.15138 13.9149 -16.9438
23.9553 -16.9438 468.029
120.862 -11.0776 -0.535151
-11.0776 77.2394 72.525
-0.535151 72.525 403.588
-49.2208 9.40625 8.83762
9.40625 52.925 40.0274
8.83762 40.0274 382.053
58.5956 -29.4516 -40.0151
-29.4516 77.6147 -72.0049
-40.0151 -72.0049 438.282

