# vtk DataFile Version 3.0
vtk output
ASCII
DATASET UNSTRUCTURED_GRID
FIELD FieldData 2
TIME 1 1 double
0.00200035
CYCLE 1 1 int
0
POINTS 102 float
0.608919 -4.99938 8.03357
-0.0200206 5.00151 -0.0734955
-0.5413 4.9938 8.0674
9.99997 4.99616 -0.0865509
0.470246 -5.00759 19.0456
-0.02 5 30
9.9928 4.98742 20.9241
-0.28092 4.98211 18.8946
-9.98662 -5.00337 20.7674
0.02 -5 30
-10 5 30
-10 -5 30
10.0022 5.00299 9.58085
9.99461 -5.00384 -0.0929328
9.99971 -4.99819 14.9448
-9.99241 4.99699 14.9434
-9.99394 -5.01116 9.17009
10 -5 30
-10 5.00685 -0.0604923
-10.0054 -4.99315 -0.0668742
0.0146244 -4.99851 -0.0799296
10 5 30
0.317614 -4.99798 3.9761
-4.69397 -5.00096 3.97842
-4.99537 -4.99583 -0.0734019
-9.99154 -5.00079 25.3848
-4.98478 -5.00396 25.3851
-4.99 -5 30
5.01 -5 30
0.243349 -5.00709 24.5278
5.22959 -5.00278 24.5281
9.99702 -5.00183 22.4658
5.23289 -5.00244 16.9868
-4.75737 -5.00475 19.9079
10.0125 -4.98925 7.41654
5.3138 -5.00079 11.4709
5.30821 -4.9926 3.97187
5.00462 -5.00117 -0.0864312
0.540533 -5.00326 13.5365
-9.99436 -5.00042 4.55065
-4.69312 -5.00386 8.59583
-9.98387 -5.00209 14.9652
-4.75959 -5.00303 14.1012
10.0006 5.0027 4.74744
10.004 0.00451033 4.73886
9.99729 -0.00384299 -0.0897419
9.99514 -0.00190347 17.9224
10.0007 -0.00683745 25.4594
9.9988 -0.000755224 12.2543
9.99377 4.99492 15.2497
10 0 30
9.99883 4.98918 25.462
-0.280945 4.99639 3.9964
4.72791 4.99628 3.99117
4.98997 4.99883 -0.0800232
4.99195 4.98863 25.4587
4.99 5 30
-5.01 5 30
-0.147012 4.9868 24.4479
-5.13239 4.989 24.4475
-9.98254 4.98801 22.4651
-5.13286 4.98957 16.9152
4.8558 4.98815 19.9051
-9.98784 4.99456 7.43606
-5.26709 4.99101 11.5021
-5.26951 4.99569 4.00343
-5.01002 5.00418 -0.0669939
-0.414034 4.98905 13.4802
4.72792 4.99286 8.82086
4.85509 4.99005 14.2344
-9.99257 -0.00210807 4.54917
-10.0027 0.00685034 -0.0636832
-9.98329 -0.00730297 17.8511
-9.98842 -0.00548313 25.3809
-9.98444 -0.00477949 12.0499
-10 0 30
-5.01269 0.00418235 -0.0701849
-0.00269811 0.00150367 -0.0767125
5.0073 -0.00117501 -0.0832402
0 0 30
-5.01 0 30
5.01 0 30
5.30781 0.00124308 3.97097
0.297312 -0.00131989 3.9768
0.0325459 -0.00360552 8.0485
0.0921382 -0.0122214 18.9715
0.22182 -0.0102161 24.5287
5.22787 -0.00691581 19.9831
-5.00218 -0.00774304 25.3835
-5.12971 -0.0095507 19.8298
5.01225 -0.00714776 25.4596
5.31084 -0.00175412 8.79913
0.166911 -0.00760903 13.4599
-4.75963 -0.00839394 16.991
-5.27249 -0.00285484 3.99779
-4.68659 -0.0060436 11.4816
5.22932 -0.00617327 14.3079
-5.26799 -0.00486159 8.6117
-0.00269811 0.00150367 -0.0767125
0 0 0
0 0 30
0 0 30

CELLS 47 211
2 98 19
2 98 13
2 98 3
2 98 18
2 98 20
2 98 1
2 100 11
2 100 17
2 100 21
2 100 10
2 100 9
2 100 5
4 0 1 2 3
4 4 5 6 7
4 4 5 7 8
4 4 5 6 9
4 5 8 10 11
4 0 12 13 14
4 0 2 7 12
4 4 8 15 16
4 7 8 10 15
4 4 6 14 17
4 1 2 18 19
4 0 1 2 19
4 4 5 8 9
4 5 8 9 11
4 0 4 15 16
4 5 7 8 10
4 0 4 7 15
4 0 3 12 13
4 0 4 7 12
4 4 7 8 15
4 0 2 15 16
4 4 6 7 12
4 4 6 9 17
4 0 3 13 20
4 0 1 19 20
4 2 16 18 19
4 4 6 12 14
4 0 2 7 15
4 0 2 16 19
4 6 9 17 21
4 0 4 12 14
4 0 2 3 12
4 5 6 9 21
4 2 15 16 18
4 0 1 3 20

CELL_TYPES 47
3
3
3
3
3
3
3
3
3
3
3
3
10
10
10
10
10
10
10
10
10
10
10
10
10
10
10
10
10
10
10
10
10
10
10
10
10
10
10
10
10
10
10
10
10
10
10

POINT_DATA 102
SCALARS NODE_ID int 1
LOOKUP_TABLE default
20
18
22
6
19
16
15
21
10
11
7
2
14
4
12
17
9
3
8
1
13
5
23
24
25
26
27
28
29
30
31
32
33
34
35
36
37
38
39
40
41
42
43
44
45
46
47
48
49
50
51
52
53
54
55
56
57
58
59
60
61
62
63
64
65
66
67
68
69
70
71
72
73
74
75
76
77
78
79
80
81
82
83
84
85
86
87
88
89
90
91
92
93
94
95
96
97
98
99
100
101
102

SCALARS Time_Step float 1
LOOKUP_TABLE default
1.00014e-06
1.47838e+07
1.00032e-06
1.51395e+07
1.00079e-06
2.09559e+07
1.00074e-06
1.00063e-06
1.00048e-06
1.77935e+07
1.35445e+07
9.84791e+06
1.00056e-06
1.28134e+07
1.00092e-06
1.00033e-06
1.00061e-06
1.34359e+07
1.27647e+07
1.5174e+07
1.13089e+07
9.76738e+06
1.00017e-06
1.00005e-06
1.00012e-06
1.00072e-06
1.00061e-06
1.00177e-06
1.00137e-06
1.00137e-06
1.00144e-06
1.00118e-06
1.00107e-06
1.00061e-06
1.00077e-06
1.00106e-06
1.0008e-06
1.00209e-06
1.00134e-06
1.00081e-06
1.00058e-06
1.00171e-06
1.00144e-06
1.00026e-06
1.00073e-06
1.00089e-06
1.0008e-06
1.00119e-06
1.00098e-06
1.00126e-06
1.00157e-06
1.00084e-06
1.00049e-06
1.00118e-06
1.00065e-06
1.00057e-06
1.0005e-06
1.00049e-06
1.00154e-06
1.00174e-06
1.00204e-06
1.00039e-06
1.00164e-06
1.00143e-06
1.00064e-06
1.00099e-06
1.00026e-06
1.0007e-06
1.0005e-06
1.0008e-06
1.00152e-06
1.0009e-06
1.00082e-06
1.0009e-06
1.00053e-06
1.00035e-06
1.00007e-06
1.00004e-06
1.0009e-06
1.00042e-06
1.00072e-06
1.00084e-06
1.00055e-06
1.0001e-06
1.00028e-06
1.0005e-06
1.0013e-06
1.00125e-06
1.00063e-06
1.00063e-06
1.00072e-06
1.0005e-06
1.00067e-06
1.00046e-06
1.00038e-06
1.00039e-06
1.00126e-06
1.00093e-06
1.00018e-06
1e+06
1.00051e-06
1e+06

SCALARS Mass_Change float 1
LOOKUP_TABLE default
2.2422
0
2.30027
0
2.01901
0
1.68804
2.04981
2.05601
0
0
0
1.65365
0
1.21511
2.53436
2.3947
0
0
0
0
0
2.31431
2.26565
2.61505
1.57571
1.35447
1.57575
2.23139
2.32331
1.67151
0.876327
1.3781
2.52078
0.804042
1.19955
1.88587
2.06013
2.06006
2.45872
3.57507
0.751165
1.29388
2.27066
1.82733
2.77493
1.23034
1.66369
1.35351
1.36066
1.64749
1.64506
2.48718
1.83623
2.41868
1.95553
1.64466
2.22981
1.67708
1.6695
0.829841
2.71296
1.07589
0.784109
2.84691
1.8988
2.05224
1.20458
1.17278
1.61888
1.8458
2.83722
2.70845
1.64311
2.36797
1.5791
2.50446
2.44585
2.16814
1.88685
1.57571
1.64506
2.28567
2.57106
2.49283
2.5031
1.62474
1.70208
1.65405
2.86202
2.33662
1.75369
1.76339
2.91874
2.45514
3.02926
1.80187
3.07308
2.24947
0
1.76722
0

VECTORS Velocity float
109.824 -1106.25 2510.76
-7.26032 329.728 3401.57
303.232 1415.61 4152.43
-6.63649 394.956 3845.88
-78.2761 -253.427 1249.93
0 0 0
569.091 1499.17 451.776
-1906.09 394.364 1271.36
-104.3 -2019.33 720.731
0 0 0
0 0 0
0 0 0
-347.742 -829.764 2379.88
58.4503 395.057 3627.62
148.295 -312.353 5134.98
-86.5525 -142.66 2763.21
-631.137 80.8962 217.693
0 0 0
-7.88167 264.761 2959.04
57.2051 264.862 2740.79
57.829 330.09 3185.09
0 0 0
-715.601 73.0068 2771.39
-312.861 729.237 2943.17
57.5171 297.476 2962.94
-120.027 -932.47 185.276
77.6038 -315.166 649.119
0 0 0
0 0 0
336.73 -179.511 361.325
537.356 507.346 567.172
868.427 1152.55 1141.17
-142.272 -138.435 2741.56
-135.956 -1477.28 1277.43
-799.102 -1279.05 3194.33
176.173 -704.727 3284.05
-556.668 -593.228 2653.5
58.1396 362.574 3406.35
50.9347 -1004.94 2211.48
-237.106 966.804 1873.46
-222.925 -145.6 2610.22
-1496.49 134.253 935.505
-1124.88 -351.8 2177.17
-386.393 -800.265 3206.39
-530.22 -761.129 3656.41
25.9069 395.006 3736.75
-161.424 1011.56 1409.91
503.085 649.21 539.978
77.3555 -663.642 1877.92
-349.3 343.466 1360.73
0 0 0
442.836 1159.3 415.401
-48.6763 787.737 3867.09
-477.789 -131.881 3627.26
-6.9484 362.342 3623.72
0.25213 872.236 727.226
0 0 0
0 0 0
-285.581 74.828 461.001
-263.165 300.765 824.935
-358.992 9.04341 1465.92
-701.922 -767.406 2008.62
-424.031 689.259 1058.56
1151.06 2089.09 3104.31
445.128 236.24 3668.73
126.288 401.285 2809.07
-7.57099 297.244 3180.31
-257.278 -495.21 2696.49
-146.568 -116.963 3198.2
-563.635 186.415 2192.65
121.882 1482.37 3284.65
24.6617 264.812 2849.91
-967.066 -484.874 2167.12
-154.031 -291.264 481.927
-913.183 280.645 1543.51
0 0 0
24.9724 297.295 3071.18
25.2843 329.909 3293.33
25.5962 362.523 3515.48
0 0 0
0 0 0
0 0 0
-724.562 -504.885 3537.88
-382.839 436.626 3217.96
-444.936 -64.5346 2977.91
-502.382 170.689 1672.77
-25.3539 -76.0716 716.992
-76.6037 694.19 1623.05
-174.866 67.7201 754.208
-516.378 -845.962 1665.96
183.391 424.734 627.217
-651.637 -722.667 2955.12
-196.351 -850.783 2622.54
-889.949 -823.17 1999.01
-30.5828 724.005 3379.16
-349.492 -179.781 2858.72
-61.4412 -174.01 2317.88
-100.146 339.537 3099.76
25.2843 329.909 3293.33
0 0 0
0 0 0
0 0 0

VECTORS Displacement float
0.00269439 0.00061923 -0.0580064
-2.05953e-05 0.00151263 -0.0734955
0.0130332 -0.00619488 -0.0565453
-3.05327e-05 -0.00384473 -0.0865509
0.0164966 -0.00759252 -0.0351636
0 0 0
-0.00720365 -0.0125787 -0.0158835
0.00686795 -0.0178879 -0.028218
0.0133847 -0.00336801 -0.0226033
0 0 0
0 0 0
0 0 0
0.00221412 0.00299258 -0.0491539
-0.00538551 -0.00384126 -0.0929328
-0.00028526 0.00181467 -0.0251674
0.00758817 -0.00300892 -0.0265782
0.00605929 -0.0111627 -0.0399083
0 0 0
-1.06977e-05 0.0068486 -0.0604923
-0.00536568 0.00685207 -0.0668742
-0.00537562 0.00149471 -0.0799296
0 0 0
0.00450156 0.00201886 -0.0696847
0.0029149 -0.000958861 -0.0673721
-0.00537065 0.00417339 -0.0734019
0.00845812 -0.000789872 -0.0101575
0.00522484 -0.00396365 -0.00989378
0 0 0
0 0 0
0.00647444 -0.00709401 -0.0126035
0.00271294 -0.00277528 -0.0122435
-0.00297996 -0.00183167 -0.0191565
0.0060169 -0.0024412 -0.038609
0.0157588 -0.00475471 -0.0274819
0.0125405 0.0107526 -0.0684584
0.0106884 -0.000786671 -0.0599196
0.00509263 0.00739718 -0.0739165
-0.00538057 -0.00117327 -0.0864312
0.0105463 -0.00326081 -0.0496663
0.00563757 -0.000419082 -0.054353
0.00377073 -0.00385974 -0.0549565
0.0161306 -0.0020905 -0.0347883
0.0135362 -0.00303039 -0.0442001
0.000564294 0.00269809 -0.067558
0.00403187 0.00451033 -0.0761396
-0.00270802 -0.00384299 -0.0897419
-0.00486386 -0.00190347 -0.0325678
0.000680344 -0.00683745 -0.010618
-0.00119712 -0.000755224 -0.0456741
-0.00623271 -0.0050756 -0.035348
0 0 0
-0.00116765 -0.0108214 -0.0080215
0.00622198 -0.00361413 -0.0655759
0.00507979 -0.00371916 -0.0708032
-2.5564e-05 -0.00116605 -0.0800232
0.00194777 -0.011373 -0.0113477
0 0 0
0 0 0
0.00688241 -0.0132015 -0.0135629
0.0114999 -0.0110004 -0.0139334
0.0174593 -0.0119859 -0.0199058
0.0110295 -0.0104311 -0.0312743
-0.000309217 -0.0118466 -0.0263115
0.0121644 -0.00543571 -0.0489414
0.010076 -0.00898873 -0.0449167
0.00765934 -0.00431022 -0.0585368
-1.56465e-05 0.00418062 -0.0669939
0.0070268 -0.0109521 -0.0431843
0.00508823 -0.0071382 -0.0561084
-0.00101507 -0.00994528 -0.0420607
0.00742696 -0.00210807 -0.0558342
-0.00268819 0.00685034 -0.0636832
0.0167122 -0.00730297 -0.0288638
0.0115827 -0.00548313 -0.0140944
0.0155603 -0.00477949 -0.0401203
0 0 0
-0.00269314 0.00418235 -0.0701849
-0.00269811 0.00150367 -0.0767125
-0.00270307 -0.00117501 -0.0832402
0 0 0
0 0 0
0 0 0
0.00469677 0.00124308 -0.0748146
0.00419935 -0.00131989 -0.0689842
0.00660017 -0.00360552 -0.0592587
0.00915763 -0.0122214 -0.0303283
0.00494572 -0.0102161 -0.0117201
0.000998912 -0.00691581 -0.0272664
0.00782466 -0.00774304 -0.0114806
0.0141845 -0.0095507 -0.0266424
0.00225162 -0.00714776 -0.0104266
0.00772894 -0.00175412 -0.0616623
0.00769267 -0.00760903 -0.0473212
0.013497 -0.00839394 -0.034434
0.00467323 -0.00285484 -0.0641761
0.0102963 -0.0060436 -0.0492141
0.00244515 -0.00617327 -0.0475139
0.00917951 -0.00486159 -0.0552705
-0.00269811 0.00150367 -0.0767125
0 0 0
0 0 0
0 0 0

VECTORS Acceleration float
-5.08456e+07 6.64955e+07 2.34418e+08
1.19995e+07 -3.17834e+07 1.39799e+08
-2.69773e+08 4.2589e+07 2.13512e+08
1.23731e+07 6.23105e+07 4.16538e+08
-3.10162e+08 2.79697e+08 3.91766e+08
0 0 0
-1.94359e+07 2.96141e+08 -8.87379e+07
-1.87389e+08 3.43056e+08 1.06843e+08
-1.73563e+08 1.34559e+08 2.05113e+07
0 0 0
0 0 0
0 0 0
-1.89239e+08 -1.70452e+08 2.29562e+08
1.06617e+08 6.21939e+07 5.27134e+08
-4.24513e+06 4.95272e+07 -1.61698e+08
1.39797e+06 -7.44409e+07 -9.23667e+07
1.25095e+08 3.21591e+08 -6.97072e+07
0 0 0
1.16273e+07 -1.25502e+08 -1.35836e+08
1.05871e+08 -1.25618e+08 -2.5241e+07
1.06245e+08 -3.15244e+07 2.51499e+08
0 0 0
-1.34596e+08 4.27647e+07 -2.33327e+07
-2.83707e+07 1.83682e+08 8.72667e+07
2.67955e+08 1.46398e+07 6.25388e+08
-1.17757e+07 3.47734e+07 -2.21908e+07
7.24005e+07 1.21527e+08 3.92792e+07
2.28638e+08 4.74735e+07 -1.04017e+09
-3.4869e+07 1.94321e+08 -2.5385e+08
6.97426e+07 9.7417e+07 -9.75458e+07
5.937e+07 1.12819e+07 -1.87926e+08
319116 1.47392e+08 1.92122e+08
4.2885e+07 -4.16586e+07 1.86929e+08
-3.70483e+07 -2.74465e+07 -4.83067e+07
-4.94213e+08 -3.16503e+08 2.40785e+08
-1.90907e+08 6.54313e+07 4.87662e+08
-1.95236e+08 -2.42057e+08 -4.54404e+07
3.70451e+08 6.64242e+08 1.80301e+09
-8.93657e+06 -3.58754e+07 4.75299e+07
-7.70476e+07 -3.70529e+07 2.32559e+07
7.64667e+07 -1.90367e+07 1.06991e+08
-1.01069e+08 -2.306e+08 7.50324e+07
-1.00943e+08 -1.81358e+08 1.2664e+08
-2.45433e+07 -1.26444e+08 -9.13666e+07
-1.37882e+08 -5.89465e+07 8.87575e+07
-1.14986e+08 6.54494e+07 3.58396e+08
2.76342e+07 -5.05498e+07 3.23466e+08
-1.64563e+08 6.04892e+07 2.35938e+07
4.48625e+07 1.15921e+08 1.53228e+08
1.17004e+08 -4.23433e+07 7.49107e+07
-2.4765e+08 -3.60957e+08 -1.27709e+09
-1.1643e+08 1.01808e+08 -4.379e+07
5.48804e+07 -4.29156e+07 1.71353e+07
-6.84228e+07 -7.07999e+07 -1.92531e+07
-3.35359e+07 -1.08574e+08 4.68228e+08
-1.16831e+08 1.09801e+08 8.19222e+07
1.58636e+07 -6.81182e+08 -1.77235e+09
9.78251e+07 -2.48895e+08 -5.48827e+08
-9.95026e+07 5.60097e+07 -3.25971e+07
-1.29232e+08 -1.38761e+07 -4.63221e+07
-2.06436e+08 2.17201e+08 9.28228e+06
-8.26197e+07 -4.11385e+07 4.72236e+07
-9.08876e+06 -6.94045e+07 1.18551e+08
-1.4582e+08 3.49699e+07 1.39983e+08
-5.64529e+06 1.02338e+08 8.48639e+07
3.24701e+07 9.20471e+07 -5.99137e+07
4.90983e+07 -4.85844e+08 1.11527e+09
1.4404e+08 4.23433e+07 -6.55556e+07
1.1261e+08 1.19169e+08 -8.38958e+07
1.12761e+08 6.49255e+07 4.16877e+07
-9.65718e+07 -4.01019e+07 1.1032e+08
1.39374e+08 -5.38743e+07 2.76931e+08
-1.23179e+08 5.8903e+07 3.85963e+07
-1.03978e+08 8.58604e+07 1.41284e+08
-2.04932e+08 -4.63229e+07 1.4349e+08
7.40981e+08 -1.47127e+08 -1.92968e+09
8.48697e+07 -8.2393e+07 5.06461e+08
1.58024e+08 -8.50942e+07 8.49207e+08
1.55418e+08 2.06921e+08 1.15187e+09
7.40373e+07 -1.04794e+08 -4.16562e+08
3.21889e+08 -2.60069e+08 -1.34365e+09
1.21576e+08 -3.95874e+08 -1.33738e+09
-1.07192e+08 -8.54773e+07 6.00846e+07
-4.43946e+07 -3.14297e+07 1.84536e+07
6.22991e+07 1.37562e+07 7.84133e+06
7.993e+07 -4.18341e+07 -5.684e+07
7.01143e+07 1.15317e+08 -1.74814e+08
7.96843e+07 -8.32158e+07 95581.7
-5.19375e+07 9.62153e+07 5.96395e+07
-6.07517e+07 -7.27325e+07 5.6251e+07
-8.88607e+07 7.87654e+07 1.13905e+08
-8.81271e+07 4.99652e+07 1.08868e+08
2.26485e+07 -1.7835e+07 7.76262e+07
-7.24208e+06 8.67778e+07 -1.77599e+06
2.30705e+07 8.1055e+07 5.18536e+07
-8.97971e+07 9.01781e+07 9.37855e+07
1.52712e+08 7.347e+07 4.79543e+07
-2.49245e+07 -1.1324e+08 7.05828e+07
5.91222e+07 -3.16539e+07 1.95649e+08
0 0 0
0 0 0
0 0 0

VECTORS Contact_Forces float
0 0 0
0 0 0
0 0 0
0 0 0
0 0 0
0 0 0
0 0 0
0 0 0
0 0 0
0 0 0
0 0 0
0 0 0
0 0 0
0 0 0
0 0 0
0 0 0
0 0 0
0 0 0
0 0 0
0 0 0
0 0 0
0 0 0
0 0 0
0 0 0
0 0 0
0 0 0
0 0 0
0 0 0
0 0 0
0 0 0
0 0 0
0 0 0
0 0 0
0 0 0
0 0 0
0 0 0
0 0 0
0 0 0
0 0 0
0 0 0
0 0 0
0 0 0
0 0 0
0 0 0
0 0 0
0 0 0
0 0 0
0 0 0
0 0 0
0 0 0
0 0 0
0 0 0
0 0 0
0 0 0
0 0 0
0 0 0
0 0 0
0 0 0
0 0 0
0 0 0
0 0 0
0 0 0
0 0 0
0 0 0
0 0 0
0 0 0
0 0 0
0 0 0
0 0 0
0 0 0
0 0 0
0 0 0
0 0 0
0 0 0
0 0 0
0 0 0
0 0 0
0 0 0
0 0 0
0 0 0
0 0 0
0 0 0
0 0 0
0 0 0
0 0 0
0 0 0
0 0 0
0 0 0
0 0 0
0 0 0
0 0 0
0 0 0
0 0 0
0 0 0
0 0 0
0 0 0
0 0 0
0 0 0
0 0 0
0 0 0
0 0 0
0 0 0

VECTORS Contact_Pressure_/_Normal float
0 0 0
0 0 0
0 0 0
0 0 0
0 0 0
0 0 0
0 0 0
0 0 0
0 0 0
0 0 0
0 0 0
0 0 0
0 0 0
0 0 0
0 0 0
0 0 0
0 0 0
0 0 0
0 0 0
0 0 0
0 0 0
0 0 0
0 0 0
0 0 0
0 0 0
0 0 0
0 0 0
0 0 0
0 0 0
0 0 0
0 0 0
0 0 0
0 0 0
0 0 0
0 0 0
0 0 0
0 0 0
0 0 0
0 0 0
0 0 0
0 0 0
0 0 0
0 0 0
0 0 0
0 0 0
0 0 0
0 0 0
0 0 0
0 0 0
0 0 0
0 0 0
0 0 0
0 0 0
0 0 0
0 0 0
0 0 0
0 0 0
0 0 0
0 0 0
0 0 0
0 0 0
0 0 0
0 0 0
0 0 0
0 0 0
0 0 0
0 0 0
0 0 0
0 0 0
0 0 0
0 0 0
0 0 0
0 0 0
0 0 0
0 0 0
0 0 0
0 0 0
0 0 0
0 0 0
0 0 0
0 0 0
0 0 0
0 0 0
0 0 0
0 0 0
0 0 0
0 0 0
0 0 0
0 0 0
0 0 0
0 0 0
0 0 0
0 0 0
0 0 0
0 0 0
0 0 0
0 0 0
0 0 0
0 0 0
0 0 0
0 0 0
0 0 0

VECTORS Contact_Pressure_/_Tangent float
0 0 0
0 0 0
0 0 0
0 0 0
0 0 0
0 0 0
0 0 0
0 0 0
0 0 0
0 0 0
0 0 0
0 0 0
0 0 0
0 0 0
0 0 0
0 0 0
0 0 0
0 0 0
0 0 0
0 0 0
0 0 0
0 0 0
0 0 0
0 0 0
0 0 0
0 0 0
0 0 0
0 0 0
0 0 0
0 0 0
0 0 0
0 0 0
0 0 0
0 0 0
0 0 0
0 0 0
0 0 0
0 0 0
0 0 0
0 0 0
0 0 0
0 0 0
0 0 0
0 0 0
0 0 0
0 0 0
0 0 0
0 0 0
0 0 0
0 0 0
0 0 0
0 0 0
0 0 0
0 0 0
0 0 0
0 0 0
0 0 0
0 0 0
0 0 0
0 0 0
0 0 0
0 0 0
0 0 0
0 0 0
0 0 0
0 0 0
0 0 0
0 0 0
0 0 0
0 0 0
0 0 0
0 0 0
0 0 0
0 0 0
0 0 0
0 0 0
0 0 0
0 0 0
0 0 0
0 0 0
0 0 0
0 0 0
0 0 0
0 0 0
0 0 0
0 0 0
0 0 0
0 0 0
0 0 0
0 0 0
0 0 0
0 0 0
0 0 0
0 0 0
0 0 0
0 0 0
0 0 0
0 0 0
0 0 0
0 0 0
0 0 0
0 0 0

VECTORS Tied_Contact_Forces float
0 0 0
0 0 0
0 0 0
0 0 0
0 0 0
0 0 0
0 0 0
0 0 0
0 0 0
0 0 0
0 0 0
0 0 0
0 0 0
0 0 0
0 0 0
0 0 0
0 0 0
0 0 0
0 0 0
0 0 0
0 0 0
0 0 0
0 0 0
0 0 0
0 0 0
0 0 0
0 0 0
0 0 0
0 0 0
0 0 0
0 0 0
0 0 0
0 0 0
0 0 0
0 0 0
0 0 0
0 0 0
0 0 0
0 0 0
0 0 0
0 0 0
0 0 0
0 0 0
0 0 0
0 0 0
0 0 0
0 0 0
0 0 0
0 0 0
0 0 0
0 0 0
0 0 0
0 0 0
0 0 0
0 0 0
0 0 0
0 0 0
0 0 0
0 0 0
0 0 0
0 0 0
0 0 0
0 0 0
0 0 0
0 0 0
0 0 0
0 0 0
0 0 0
0 0 0
0 0 0
0 0 0
0 0 0
0 0 0
0 0 0
0 0 0
0 0 0
0 0 0
0 0 0
0 0 0
0 0 0
0 0 0
0 0 0
0 0 0
0 0 0
0 0 0
0 0 0
0 0 0
0 0 0
0 0 0
0 0 0
0 0 0
0 0 0
0 0 0
0 0 0
0 0 0
0 0 0
0 0 0
0 0 0
0 0 0
0 0 0
0 0 0
0 0 0

CELL_DATA 47
SCALARS ELEMENT_ID int 1
LOOKUP_TABLE default
0
0
0
0
0
0
0
0
0
0
0
0
1
2
3
4
5
6
7
8
9
10
11
12
13
14
15
16
17
18
19
20
21
22
23
24
25
26
27
28
29
30
31
32
33
34
35

SCALARS PART_ID int 1
LOOKUP_TABLE default
36
36
36
36
36
36
37
37
37
37
37
37
1
1
1
1
1
1
1
1
1
1
1
1
1
1
1
1
1
1
1
1
1
1
1
1
1
1
1
1
1
1
1
1
1
1
1

SCALARS EROSION_STATUS int 1
LOOKUP_TABLE default
1
1
1
1
1
1
1
1
1
1
1
1
1
1
1
1
1
1
1
1
1
1
1
1
1
1
1
1
1
1
1
1
1
1
1
1
1
1
1
1
1
1
1
1
1
1
1

SCALARS 1DELEM_Plastic_Strain float 1
LOOKUP_TABLE default
0
0
0
0
0
0
0
0
0
0
0
0
0
0
0
0
0
0
0
0
0
0
0
0
0
0
0
0
0
0
0
0
0
0
0
0
0
0
0
0
0
0
0
0
0
0
0

SCALARS 1DELEM_Specific_Energy float 1
LOOKUP_TABLE default
0
0
0
0
0
0
0
0
0
0
0
0
0
0
0
0
0
0
0
0
0
0
0
0
0
0
0
0
0
0
0
0
0
0
0
0
0
0
0
0
0
0
0
0
0
0
0

SCALARS 1DELEM_Von_Mises float 1
LOOKUP_TABLE default
0
0
0
0
0
0
0
0
0
0
0
0
0
0
0
0
0
0
0
0
0
0
0
0
0
0
0
0
0
0
0
0
0
0
0
0
0
0
0
0
0
0
0
0
0
0
0

SCALARS 3DELEM_Plastic_Strain float 1
LOOKUP_TABLE default
0
0
0
0
0
0
0
0
0
0
0
0
0
0
0
0
0
0
0
0
0
0
0
0
0
0
0
0
0
0
0
0
0
0
0
0
0
0
0
0
0
0
0
0
0
0
0

SCALARS 3DELEM_Specific_Energy float 1
LOOKUP_TABLE default
0
0
0
0
0
0
0
0
0
0
0
0
9.86546e+07
1.55841e+08
1.58093e+08
1.38464e+08
1.65724e+08
1.94287e+08
1.10773e+08
1.24202e+08
9.71366e+07
1.9e+08
7.01448e+07
7.85086e+07
1.45134e+08
1.21929e+08
1.21599e+08
1.39855e+08
1.57724e+08
1.61054e+08
1.46765e+08
1.70547e+08
1.34853e+08
1.70484e+08
1.32741e+08
1.64259e+08
8.40626e+07
9.71368e+07
1.59404e+08
1.16797e+08
1.24908e+08
1.247e+08
1.91156e+08
1.52825e+08
1.347e+08
1.00022e+08
9.45735e+07

SCALARS 3DELEM_Von_Mises float 1
LOOKUP_TABLE default
0
0
0
0
0
0
0
0
0
0
0
0
447.785
670.491
655.013
552.638
604.758
618.21
531.39
523.542
472.326
686.842
346.457
372.872
577.563
505.728
488.284
591.869
614.22
583.552
622.719
579.123
478.015
703.266
559.875
567.635
353.712
374.523
652.963
504.904
466.691
501.16
662.236
592.969
532.468
418.998
381.161

TENSORS 3DELEM_Stress float
0 0 0 
0 0 0 
0 0 0 
0 0 0 
0 0 0 
0 0 0 
0 0 0 
0 0 0 
0 0 0 
0 0 0 
0 0 0 
0 0 0 
0 0 0 
0 0 0 
0 0 0 
0 0 0 
0 0 0 
0 0 0 
0 0 0 
0 0 0 
0 0 0 
0 0 0 
0 0 0 
0 0 0 
0 0 0 
0 0 0 
0 0 0 
0 0 0 
0 0 0 
0 0 0 
0 0 0 
0 0 0 
0 0 0 
0 0 0 
0 0 0 
0 0 0 
145.924 38.966 2.06722
38.966 42.3219 -14.8591
2.06722 -14.8591 526.824
-95.3178 50.96 13.2096
50.96 -12.4429 -18.7217
13.2096 -18.7217 605.696
-10.5861 -39.4228 25.5517
-39.4228 6.48557 -66.5385
25.5517 -66.5385 637.418
62.7162 22.5177 76.1601
22.5177 23.4424 -48.6802
76.1601 -48.6802 570.546
139.717 6.89373 85.644
6.89373 124.383 -151.504
85.644 -151.504 656.023
137.553 -0.795317 -21.0171
-0.795317 -30.7698 10.623
-21.0171 10.623 652.782
6.98816 -2.89405 21.7321
-2.89405 -31.9877 -75.1079
21.7321 -75.1079 500.209
27.1475 -30.2016 -15.6129
-30.2016 -28.4367 -61.0968
-15.6129 -61.0968 506.419
-49.9377 -5.97186 23.1707
-5.97186 -40.5019 -27.6158
23.1707 -27.6158 422.776
-50.0419 20.3988 -23.1865
20.3988 16.8672 20.8578
-23.1865 20.8578 664.755
123.144 29.9876 -85.5522
29.9876 122.923 40.0605
-85.5522 40.0605 423.97
134.423 52.1643 -47.2879
52.1643 84.8189 27.9755
-47.2879 27.9755 455.985
103.562 -22.0798 75.7905
-22.0798 54.0532 -104.668
75.7905 -104.668 608.127
115.891 -4.85021 91.3236
-4.85021 106.618 -114.11
91.3236 -114.11 548.91
-5.3551 -14.9417 6.53509
-14.9417 -8.65124 3.64738
6.53509 3.64738 480.414
1.39314 -2.67308 96.2967
-2.67308 65.9201 -106.226
96.2967 -106.226 567.973
-6.52742 -72.8348 -6.95057
-72.8348 28.3592 -11.6389
-6.95057 -11.6389 610.822
123.918 17.9928 108.455
17.9928 43.6293 22.9033
108.455 22.9033 629.544
-50.005 -23.7609 -2.65323
-23.7609 -20.1814 -71.5592
-2.65323 -71.5592 573.211
-0.112513 -73.4944 -4.7394
-73.4944 6.72975 -24.7024
-4.7394 -24.7024 566.554
16.3551 32.4118 -10.6482
32.4118 63.1341 -37.6612
-10.6482 -37.6612 507.837
-97.2374 37.887 39.3119
37.887 -16.677 21.2506
39.3119 21.2506 635.443
40.2162 30.9447 9.8768
30.9447 -20.0116 -11.362
9.8768 -11.362 564.346
230.034 41.2203 128.568
41.2203 119.034 92.8377
128.568 92.8377 656.64
192.197 21.861 -49.0581
21.861 111.448 80.7345
-49.0581 80.7345 455.161
49.8359 14.8136 -63.5796
14.8136 63.8795 2.86566
-63.5796 2.86566 413.662
-93.5775 23.4377 19.5455
23.4377 -26.1009 37.1065
19.5455 37.1065 585.158
2.26806 -26.7729 21.6667
-26.7729 5.60688 -31.9389
21.6667 -31.9389 502.236
93.8249 55.345 -33.6041
55.345 118.711 -63.4316
-33.6041 -63.4316 545.231
158.336 -12.6416 147.913
-12.6416 118.849 -28.1112
147.913 -28.1112 564.628
53.5307 -45.1117 9.54043
-45.1117 53.5153 -33.6408
9.54043 -33.6408 708.338
106.105 50.012 19.5941
50.012 13.5322 -1.38784
19.5941 -1.38784 639.926
123.045 1.85069 160.314
1.85069 104.946 -10.8539
160.314 -10.8539 567.659
-16.1935 -7.22488 8.49428
-7.22488 13.1109 -40.3494
8.49428 -40.3494 410.354
196.473 18.5482 27.6263
18.5482 133.476 43.6955
27.6263 43.6955 530.019

